     Program PWSCF v.6.1 (svn rev. 13369) starts on 31Dec2017 at  0:13: 1

     Current dimensions of program PWSCF are:
     Max number of different atomic species (ntypx) = 10
     Max number of k-points (npk) =  40000
     Max angular momentum in pseudopotentials (lmaxx) =  3

     Subspace diagonalization in iterative solution of the eigenvalue problem:
     a serial algorithm will be used

     Title:
     cubic BaTiO3 at 7.40 lattice parameter. xc=PZ

     bravais-lattice index     =            1
     lattice parameter (alat)  =       7.4000  a.u.
     unit-cell volume          =     405.2240 (a.u.)^3
     number of atoms/cell      =            5
     number of atomic types    =            3
     number of electrons       =        40.00
     number of Kohn-Sham states=           24
     kinetic-energy cutoff     =      50.0000  Ry
     charge density cutoff     =     400.0000  Ry
     convergence threshold     =      1.0E-12
     mixing beta               =       0.6000
     number of iterations used =            8  plain     mixing
     Exchange-correlation      = SLA-PZ-NOGX-NOGC ( 1  1  0  0 0 0)

     celldm(1)=   7.400000  celldm(2)=   0.000000  celldm(3)=   0.000000
     celldm(4)=   0.000000  celldm(5)=   0.000000  celldm(6)=   0.000000

     crystal axes: (cart. coord. in units of alat)
               a(1) = (   1.000000   0.000000   0.000000 )
               a(2) = (   0.000000   1.000000   0.000000 )
               a(3) = (   0.000000   0.000000   1.000000 )

     reciprocal axes: (cart. coord. in units 2 pi/alat)
               b(1) = (  1.000000  0.000000  0.000000 )
               b(2) = (  0.000000  1.000000  0.000000 )
               b(3) = (  0.000000  0.000000  1.000000 )

     PseudoPot. # 1 for O  read from file:
     ../../PSP_DIR/O.pz-van_ak.UPF
     MD5 check sum: d814fcb982dd9af4fc6452aae6bb9318
     Pseudo is Ultrasoft, Zval =  6.0
     Generated by new atomic code, or converted to UPF format
     Using radial grid of  737 points,  4 beta functions with:
                l(1) =   0
                l(2) =   0
                l(3) =   1
                l(4) =   1
     Q(r) pseudized with  8 coefficients,  rinner =    0.800   0.800   0.800

     PseudoPot. # 2 for Ti read from file:
     ../../PSP_DIR/Ti.pz-sp-van_ak.UPF
     MD5 check sum: 545d0e6e05332b8871a8093f427cb0ca
     Pseudo is Ultrasoft, Zval = 12.0
     Generated by new atomic code, or converted to UPF format
     Using radial grid of  851 points,  6 beta functions with:
                l(1) =   0
                l(2) =   0
                l(3) =   1
                l(4) =   1
                l(5) =   2
                l(6) =   2
     Q(r) pseudized with  8 coefficients,  rinner =    1.000   1.000   1.000
                                                       1.000   1.000

     PseudoPot. # 3 for Ba read from file:
     ../../PSP_DIR/Ba.pz-sp-hgh.UPF
     MD5 check sum: 155c4e4bbe33bd45901c985a874b3acf
     Pseudo is Norm-conserving, Zval = 10.0
     Generated in analytical, separable form
     Using radial grid of 1251 points,  6 beta functions with:
                l(1) =   0
                l(2) =   0
                l(3) =   1
                l(4) =   1
                l(5) =   2
                l(6) =   3

     atomic species   valence    mass     pseudopotential
        O              6.00    15.99000     O ( 1.00)
        Ti            12.00    47.88000     Ti( 1.00)
        Ba            10.00   137.33000     Ba( 1.00)

     48 Sym. Ops., with inversion, found

   Cartesian axes

     site n.     atom                  positions (alat units)
         1           Ba  tau(   1) = (   0.0000000   0.0000000   0.0000000  )
         2           Ti  tau(   2) = (   0.5000000   0.5000000   0.5000000  )
         3           O   tau(   3) = (   0.0000000   0.5000000   0.5000000  )
         4           O   tau(   4) = (   0.5000000   0.0000000   0.5000000  )
         5           O   tau(   5) = (   0.5000000   0.5000000   0.0000000  )

     number of k points=     4
                       cart. coord. in units 2pi/alat
        k(    1) = (   0.1250000   0.1250000   0.1250000), wk =   0.2500000
        k(    2) = (   0.1250000   0.1250000   0.3750000), wk =   0.7500000
        k(    3) = (   0.1250000   0.3750000   0.3750000), wk =   0.7500000
        k(    4) = (   0.3750000   0.3750000   0.3750000), wk =   0.2500000

     Initial potential from superposition of free atoms

     starting charge   28.99996, renormalised to   40.00000
     Starting wfc are   22 randomized atomic wfcs +    2 random wfc

     Self-consistent Calculation

     iteration #  1     ecut=    50.00 Ry     beta=0.60
     Davidson diagonalization with overlap
     ethr =  1.00E-02,  avg # of iterations = 11.8

     total energy              =      24.98396655 Ry
     Harris-Foulkes estimate   =    -365.16511970 Ry
     estimated scf accuracy    <     516.64489431 Ry

[...]

     negative rho (up, down):  2.317E-07 0.000E+00

[...]

          k = 0.1250 0.1250 0.1250     band energies (ev):

   -45.6489 -22.4528 -22.4523 -22.4519  -9.0237  -7.1829  -7.1764  -6.0127
     4.3628   4.3677   4.8389   6.9934   7.0203   7.2679   7.5852   7.6012
     7.9758   8.6977   9.8497   9.8545  12.1052  12.1642  12.1655  14.8020

[...]

     highest occupied, lowest unoccupied level (ev):     9.8545   12.1052

!    total energy              =    -264.66642742 Ry
     Harris-Foulkes estimate   =    -265.37548984 Ry
     estimated scf accuracy    <       1.46850300 Ry

     The total energy is the sum of the following terms:

     one-electron contribution =     -70.01486713 Ry
     hartree contribution      =      57.47809358 Ry
     xc contribution           =     -43.04090089 Ry
     ewald contribution        =    -211.91466263 Ry
     scf correction            =       2.82590965 Ry

[...]

          k = 0.3750 0.3750 0.3750     band energies (ev):

[...]

     one-electron contribution =     -68.20274868 Ry
     hartree contribution      =      58.14000506 Ry
     xc contribution           =     -42.80388131 Ry
     ewald contribution        =    -211.91466263 Ry
     scf correction            =       0.00021599 Ry

[...]

     total energy              =    -264.78107157 Ry
     Harris-Foulkes estimate   =    -264.78107157 Ry
     estimated scf accuracy    <          3.4E-12 Ry

     iteration # 34     ecut=    50.00 Ry     beta=0.60
     Davidson diagonalization with overlap
     ethr =  1.00E-13,  avg # of iterations =  1.2

     negative rho (up, down):  6.269E-07 0.000E+00

     End of self-consistent calculation

          k = 0.1250 0.1250 0.1250 (  2424 PWs)   bands (ev):

[...]

          k = 0.3750 0.3750 0.3750 (  2398 PWs)   bands (ev):

   -44.6443 -21.3005 -21.2999 -21.2999 -13.4641  -5.0402  -4.7732  -4.7732
     0.5378   0.5378   0.9264   6.7226   7.1862   7.1862   8.0428   8.5640
     8.5640  10.5959  10.5959  10.7893  15.2752  15.2752  15.2882  18.6095

     highest occupied, lowest unoccupied level (ev):    10.7893   13.3957

!    total energy              =    -264.78107157 Ry
     Harris-Foulkes estimate   =    -264.78107157 Ry
     estimated scf accuracy    <          2.3E-13 Ry

     The total energy is the sum of the following terms:

     one-electron contribution =     -68.20248413 Ry
     hartree contribution      =      58.13995016 Ry
     xc contribution           =     -42.80387496 Ry
     ewald contribution        =    -211.91466263 Ry

     convergence has been achieved in  34 iterations

     Forces acting on atoms (cartesian axes, Ry/au):

     atom    1 type  3   force =     0.00000000    0.00000000    0.00000000
     atom    2 type  2   force =     0.00000000    0.00000000    0.00000000
     atom    3 type  1   force =     0.00000000    0.00000000    0.00000000
     atom    4 type  1   force =     0.00000000    0.00000000    0.00000000
     atom    5 type  1   force =     0.00000000    0.00000000    0.00000000

     Total force =     0.000000     Total SCF correction =     0.000000

     Computing stress (Cartesian axis) and pressure

          total   stress  (Ry/bohr**3)                   (kbar)     P=   17.46
   0.00011872   0.00000000   0.00000000         17.46      0.00      0.00
   0.00000000   0.00011872   0.00000000          0.00     17.46      0.00
   0.00000000   0.00000000   0.00011872          0.00      0.00     17.46

     Writing output data file bto.save

     General routines

     Parallel routines

   This run was terminated on:   0:13: 4  31Dec2017

   JOB DONE.