     Program PWSCF v.6.1 (svn rev. 13369) starts on 31Dec2017 at  0:13:14

     Current dimensions of program PWSCF are:
     Max number of different atomic species (ntypx) = 10
     Max number of k-points (npk) =  40000
     Max angular momentum in pseudopotentials (lmaxx) =  3

     Subspace diagonalization in iterative solution of the eigenvalue problem:
     a serial algorithm will be used

     Title:
     cubic BaTiO3 at 7.40 lattice parameter. xc=PZ

     bravais-lattice index     =            1
     lattice parameter (alat)  =       7.4000  a.u.
     unit-cell volume          =     405.2240 (a.u.)^3
     number of atoms/cell      =            5
     number of atomic types    =            3
     number of electrons       =        40.00
     number of Kohn-Sham states=           24
     kinetic-energy cutoff     =      50.0000  Ry
     charge density cutoff     =     400.0000  Ry
     convergence threshold     =      1.0E-12
     mixing beta               =       0.6000
     number of iterations used =            8  plain     mixing
     Exchange-correlation      = SLA-PZ-NOGX-NOGC ( 1  1  0  0 0 0)

     celldm(1)=   7.400000  celldm(2)=   0.000000  celldm(3)=   0.000000
     celldm(4)=   0.000000  celldm(5)=   0.000000  celldm(6)=   0.000000

     crystal axes: (cart. coord. in units of alat)
               a(1) = (   1.000000   0.000000   0.000000 )
               a(2) = (   0.000000   1.000000   0.000000 )
               a(3) = (   0.000000   0.000000   1.000000 )

     reciprocal axes: (cart. coord. in units 2 pi/alat)
               b(1) = (  1.000000  0.000000  0.000000 )
               b(2) = (  0.000000  1.000000  0.000000 )
               b(3) = (  0.000000  0.000000  1.000000 )

     PseudoPot. # 1 for O  read from file:
     ../../PSP_DIR/O.pz-van_ak.UPF
     MD5 check sum: d814fcb982dd9af4fc6452aae6bb9318
     Pseudo is Ultrasoft, Zval =  6.0
     Generated by new atomic code, or converted to UPF format
     Using radial grid of  737 points,  4 beta functions with:
                l(1) =   0
                l(2) =   0
                l(3) =   1
                l(4) =   1
     Q(r) pseudized with  8 coefficients,  rinner =    0.800   0.800   0.800

     PseudoPot. # 2 for Ti read from file:
     ../../PSP_DIR/Ti.pz-sp-van_ak.UPF
     MD5 check sum: 545d0e6e05332b8871a8093f427cb0ca
     Pseudo is Ultrasoft, Zval = 12.0
     Generated by new atomic code, or converted to UPF format
     Using radial grid of  851 points,  6 beta functions with:
                l(1) =   0
                l(2) =   0
                l(3) =   1
                l(4) =   1
                l(5) =   2
                l(6) =   2
     Q(r) pseudized with  8 coefficients,  rinner =    1.000   1.000   1.000
                                                       1.000   1.000

     PseudoPot. # 3 for Ba read from file:
     ../../PSP_DIR/Ba.pz-sp-hgh.UPF
     MD5 check sum: 155c4e4bbe33bd45901c985a874b3acf
     Pseudo is Norm-conserving, Zval = 10.0
     Generated in analytical, separable form
     Using radial grid of 1251 points,  6 beta functions with:
                l(1) =   0
                l(2) =   0
                l(3) =   1
                l(4) =   1
                l(5) =   2
                l(6) =   3

     atomic species   valence    mass     pseudopotential
        O              6.00    15.99000     O ( 1.00)
        Ti            12.00    47.88000     Ti( 1.00)
        Ba            10.00   137.33000     Ba( 1.00)

     48 Sym. Ops., with inversion, found

   Cartesian axes

     site n.     atom                  positions (alat units)
         1           Ba  tau(   1) = (   0.0000000   0.0000000   0.0000000  )
         2           Ti  tau(   2) = (   0.5000000   0.5000000   0.5000000  )
         3           O   tau(   3) = (   0.0000000   0.5000000   0.5000000  )
         4           O   tau(   4) = (   0.5000000   0.0000000   0.5000000  )
         5           O   tau(   5) = (   0.5000000   0.5000000   0.0000000  )

     number of k points=    20
                       cart. coord. in units 2pi/alat
        k(    1) = (   0.0625000   0.0625000   0.0625000), wk =   0.0312500
        k(    2) = (   0.0625000   0.0625000   0.1875000), wk =   0.0937500
        k(    3) = (   0.0625000   0.0625000   0.3125000), wk =   0.0937500
        k(    4) = (   0.0625000   0.0625000   0.4375000), wk =   0.0937500
        k(    5) = (   0.0625000   0.1875000   0.1875000), wk =   0.0937500
        k(    6) = (   0.0625000   0.1875000   0.3125000), wk =   0.1875000
        k(    7) = (   0.0625000   0.1875000   0.4375000), wk =   0.1875000
        k(    8) = (   0.0625000   0.3125000   0.3125000), wk =   0.0937500
        k(    9) = (   0.0625000   0.3125000   0.4375000), wk =   0.1875000
        k(   10) = (   0.0625000   0.4375000   0.4375000), wk =   0.0937500
        k(   11) = (   0.1875000   0.1875000   0.1875000), wk =   0.0312500
        k(   12) = (   0.1875000   0.1875000   0.3125000), wk =   0.0937500
        k(   13) = (   0.1875000   0.1875000   0.4375000), wk =   0.0937500
        k(   14) = (   0.1875000   0.3125000   0.3125000), wk =   0.0937500
        k(   15) = (   0.1875000   0.3125000   0.4375000), wk =   0.1875000
        k(   16) = (   0.1875000   0.4375000   0.4375000), wk =   0.0937500
        k(   17) = (   0.3125000   0.3125000   0.3125000), wk =   0.0312500
        k(   18) = (   0.3125000   0.3125000   0.4375000), wk =   0.0937500
        k(   19) = (   0.3125000   0.4375000   0.4375000), wk =   0.0937500
        k(   20) = (   0.4375000   0.4375000   0.4375000), wk =   0.0312500

     Initial potential from superposition of free atoms

     starting charge   28.99996, renormalised to   40.00000
     Starting wfc are   22 randomized atomic wfcs +    2 random wfc

     Self-consistent Calculation

     iteration #  1     ecut=    50.00 Ry     beta=0.60
     Davidson diagonalization with overlap
     ethr =  1.00E-02,  avg # of iterations = 11.7

     total energy              =      24.76917969 Ry
     Harris-Foulkes estimate   =    -365.17124492 Ry
     estimated scf accuracy    <     516.39605612 Ry

[...]

     negative rho (up, down):  2.090E-07 0.000E+00

[...]

          k = 0.0625 0.0625 0.0625     band energies (ev):

   -46.2359 -23.1502 -23.1500 -23.1499 -10.4982  -9.4250  -9.4249  -2.2550
     3.6179   3.6193   3.6723   5.7476   5.7479   5.8647   5.9049   5.9053
     5.9638  10.7895  10.8207  10.8215  11.5828  11.7424  12.0124  13.3264

[...]

     highest occupied, lowest unoccupied level (ev):    11.3542   11.1158

!    total energy              =    -265.69113720 Ry
     Harris-Foulkes estimate   =    -266.93995178 Ry
     estimated scf accuracy    <       5.63492512 Ry

     The total energy is the sum of the following terms:

     one-electron contribution =     -74.56663877 Ry
     hartree contribution      =      45.96392952 Ry
     xc contribution           =     -41.67037526 Ry
     ewald contribution        =    -211.91466263 Ry
     scf correction            =      16.49660995 Ry

[...]

          k = 0.4375 0.4375 0.4375     band energies (ev):

[...]

     one-electron contribution =     -68.21995776 Ry
     hartree contribution      =      58.12747911 Ry
     xc contribution           =     -42.80270276 Ry
     ewald contribution        =    -211.91466263 Ry
     scf correction            =       0.02983791 Ry

[...]

     total energy              =    -264.78000774 Ry
     Harris-Foulkes estimate   =    -264.78000774 Ry
     estimated scf accuracy    <          5.5E-11 Ry

     iteration # 49     ecut=    50.00 Ry     beta=0.60
     Davidson diagonalization with overlap
     ethr =  1.37E-13,  avg # of iterations =  2.5

     negative rho (up, down):  6.319E-07 0.000E+00

     End of self-consistent calculation

          k = 0.0625 0.0625 0.0625 (  2436 PWs)   bands (ev):

[...]

          k = 0.4375 0.4375 0.4375 (  2416 PWs)   bands (ev):

   -44.6609 -21.3228 -21.3226 -21.3226 -13.4321  -4.7914  -4.7123  -4.7123
     0.3537   0.3537   0.4670   6.4438   6.9953   6.9953   8.4536   8.6239
     8.6239  10.8697  10.8697  10.9395  15.5118  15.5118  15.5129  18.2399

     highest occupied, lowest unoccupied level (ev):    10.9395   12.9796

!    total energy              =    -264.78000774 Ry
     Harris-Foulkes estimate   =    -264.78000774 Ry
     estimated scf accuracy    <          9.4E-13 Ry

     The total energy is the sum of the following terms:

     one-electron contribution =     -68.19494597 Ry
     hartree contribution      =      58.13305318 Ry
     xc contribution           =     -42.80345232 Ry
     ewald contribution        =    -211.91466263 Ry

     convergence has been achieved in  49 iterations

     Forces acting on atoms (cartesian axes, Ry/au):

     atom    1 type  3   force =     0.00000000    0.00000000    0.00000000
     atom    2 type  2   force =     0.00000000    0.00000000    0.00000000
     atom    3 type  1   force =     0.00000000    0.00000000    0.00000000
     atom    4 type  1   force =     0.00000000    0.00000000    0.00000000
     atom    5 type  1   force =     0.00000000    0.00000000    0.00000000

     Total force =     0.000000     Total SCF correction =     0.000000

     Computing stress (Cartesian axis) and pressure

          total   stress  (Ry/bohr**3)                   (kbar)     P=   17.90
   0.00012165   0.00000000   0.00000000         17.90      0.00      0.00
   0.00000000   0.00012165   0.00000000          0.00     17.90      0.00
   0.00000000   0.00000000   0.00012165          0.00      0.00     17.90

     Writing output data file bto.save

     General routines

     Parallel routines

   This run was terminated on:   0:13:28  31Dec2017

   JOB DONE.