     Program PWSCF v.6.1 (svn rev. 13369) starts on 31Dec2017 at  0:13: 6

     Current dimensions of program PWSCF are:
     Max number of different atomic species (ntypx) = 10
     Max number of k-points (npk) =  40000
     Max angular momentum in pseudopotentials (lmaxx) =  3

     Subspace diagonalization in iterative solution of the eigenvalue problem:
     a serial algorithm will be used

     Title:
     cubic BaTiO3 at 7.40 lattice parameter. xc=PZ

     bravais-lattice index     =            1
     lattice parameter (alat)  =       7.4000  a.u.
     unit-cell volume          =     405.2240 (a.u.)^3
     number of atoms/cell      =            5
     number of atomic types    =            3
     number of electrons       =        40.00
     number of Kohn-Sham states=           24
     kinetic-energy cutoff     =      50.0000  Ry
     charge density cutoff     =     400.0000  Ry
     convergence threshold     =      1.0E-12
     mixing beta               =       0.6000
     number of iterations used =            8  plain     mixing
     Exchange-correlation      = SLA-PZ-NOGX-NOGC ( 1  1  0  0 0 0)

     celldm(1)=   7.400000  celldm(2)=   0.000000  celldm(3)=   0.000000
     celldm(4)=   0.000000  celldm(5)=   0.000000  celldm(6)=   0.000000

     crystal axes: (cart. coord. in units of alat)
               a(1) = (   1.000000   0.000000   0.000000 )
               a(2) = (   0.000000   1.000000   0.000000 )
               a(3) = (   0.000000   0.000000   1.000000 )

     reciprocal axes: (cart. coord. in units 2 pi/alat)
               b(1) = (  1.000000  0.000000  0.000000 )
               b(2) = (  0.000000  1.000000  0.000000 )
               b(3) = (  0.000000  0.000000  1.000000 )

     PseudoPot. # 1 for O  read from file:
     ../../PSP_DIR/O.pz-van_ak.UPF
     MD5 check sum: d814fcb982dd9af4fc6452aae6bb9318
     Pseudo is Ultrasoft, Zval =  6.0
     Generated by new atomic code, or converted to UPF format
     Using radial grid of  737 points,  4 beta functions with:
                l(1) =   0
                l(2) =   0
                l(3) =   1
                l(4) =   1
     Q(r) pseudized with  8 coefficients,  rinner =    0.800   0.800   0.800

     PseudoPot. # 2 for Ti read from file:
     ../../PSP_DIR/Ti.pz-sp-van_ak.UPF
     MD5 check sum: 545d0e6e05332b8871a8093f427cb0ca
     Pseudo is Ultrasoft, Zval = 12.0
     Generated by new atomic code, or converted to UPF format
     Using radial grid of  851 points,  6 beta functions with:
                l(1) =   0
                l(2) =   0
                l(3) =   1
                l(4) =   1
                l(5) =   2
                l(6) =   2
     Q(r) pseudized with  8 coefficients,  rinner =    1.000   1.000   1.000
                                                       1.000   1.000

     PseudoPot. # 3 for Ba read from file:
     ../../PSP_DIR/Ba.pz-sp-hgh.UPF
     MD5 check sum: 155c4e4bbe33bd45901c985a874b3acf
     Pseudo is Norm-conserving, Zval = 10.0
     Generated in analytical, separable form
     Using radial grid of 1251 points,  6 beta functions with:
                l(1) =   0
                l(2) =   0
                l(3) =   1
                l(4) =   1
                l(5) =   2
                l(6) =   3

     atomic species   valence    mass     pseudopotential
        O              6.00    15.99000     O ( 1.00)
        Ti            12.00    47.88000     Ti( 1.00)
        Ba            10.00   137.33000     Ba( 1.00)

     48 Sym. Ops., with inversion, found

   Cartesian axes

     site n.     atom                  positions (alat units)
         1           Ba  tau(   1) = (   0.0000000   0.0000000   0.0000000  )
         2           Ti  tau(   2) = (   0.5000000   0.5000000   0.5000000  )
         3           O   tau(   3) = (   0.0000000   0.5000000   0.5000000  )
         4           O   tau(   4) = (   0.5000000   0.0000000   0.5000000  )
         5           O   tau(   5) = (   0.5000000   0.5000000   0.0000000  )

     number of k points=    10
                       cart. coord. in units 2pi/alat
        k(    1) = (   0.0833333   0.0833333   0.0833333), wk =   0.0740741
        k(    2) = (   0.0833333   0.0833333   0.2500000), wk =   0.2222222
        k(    3) = (   0.0833333   0.0833333   0.4166667), wk =   0.2222222
        k(    4) = (   0.0833333   0.2500000   0.2500000), wk =   0.2222222
        k(    5) = (   0.0833333   0.2500000   0.4166667), wk =   0.4444444
        k(    6) = (   0.0833333   0.4166667   0.4166667), wk =   0.2222222
        k(    7) = (   0.2500000   0.2500000   0.2500000), wk =   0.0740741
        k(    8) = (   0.2500000   0.2500000   0.4166667), wk =   0.2222222
        k(    9) = (   0.2500000   0.4166667   0.4166667), wk =   0.2222222
        k(   10) = (   0.4166667   0.4166667   0.4166667), wk =   0.0740741

     Initial potential from superposition of free atoms

     starting charge   28.99996, renormalised to   40.00000
     Starting wfc are   22 randomized atomic wfcs +    2 random wfc

     Self-consistent Calculation

     iteration #  1     ecut=    50.00 Ry     beta=0.60
     Davidson diagonalization with overlap
     ethr =  1.00E-02,  avg # of iterations = 11.7

     total energy              =      25.79210719 Ry
     Harris-Foulkes estimate   =    -365.19832187 Ry
     estimated scf accuracy    <     517.72948554 Ry

[...]

     negative rho (up, down):  1.865E-07 0.000E+00

[...]

          k = 0.0833 0.0833 0.0833     band energies (ev):

   -44.2783 -21.3850 -21.3845 -21.3844 -10.9791 -10.0237 -10.0228  -1.5916
     3.2766   3.2772   3.3700   5.0251   5.0255   5.2924   5.2964   5.3144
     5.3156  11.5066  11.9323  11.9358  12.1762  12.1769  12.2360  14.8452

[...]

     highest occupied, lowest unoccupied level (ev):    11.9358   12.1514

!    total energy              =    -264.05235429 Ry
     Harris-Foulkes estimate   =    -267.54021498 Ry
     estimated scf accuracy    <       6.79454309 Ry

     The total energy is the sum of the following terms:

     one-electron contribution =     -70.82147976 Ry
     hartree contribution      =      59.58744110 Ry
     xc contribution           =     -43.42855190 Ry
     ewald contribution        =    -211.91466263 Ry
     scf correction            =       2.52489890 Ry

[...]

     total energy              =    -264.78010263 Ry
     Harris-Foulkes estimate   =    -264.78010263 Ry
     estimated scf accuracy    <          4.6E-11 Ry

[...]

          k = 0.4167 0.4167 0.4167     band energies (ev):

[...]

     one-electron contribution =     -68.19543747 Ry
     hartree contribution      =      58.13350102 Ry
     xc contribution           =     -42.80349224 Ry
     ewald contribution        =    -211.91466263 Ry
     scf correction            =      -0.00001131 Ry

     iteration # 31     ecut=    50.00 Ry     beta=0.60
     Davidson diagonalization with overlap
     ethr =  1.00E-13,  avg # of iterations =  1.0

     negative rho (up, down):  6.327E-07 0.000E+00

     End of self-consistent calculation

          k = 0.0833 0.0833 0.0833 (  2436 PWs)   bands (ev):

[...]

          k = 0.4167 0.4167 0.4167 (  2410 PWs)   bands (ev):

   -44.6600 -21.3201 -21.3198 -21.3198 -13.4401  -4.8631  -4.7289  -4.7289
     0.4047   0.4047   0.5981   6.5230   7.0455   7.0455   8.3237   8.6074
     8.6074  10.7862  10.7862  10.8996  15.4467  15.4467  15.4503  18.3790

     highest occupied, lowest unoccupied level (ev):    10.8996   13.0960

!    total energy              =    -264.78010263 Ry
     Harris-Foulkes estimate   =    -264.78010263 Ry
     estimated scf accuracy    <          2.2E-13 Ry

     The total energy is the sum of the following terms:

     one-electron contribution =     -68.19544981 Ry
     hartree contribution      =      58.13350179 Ry
     xc contribution           =     -42.80349198 Ry
     ewald contribution        =    -211.91466263 Ry

     convergence has been achieved in  31 iterations

     Forces acting on atoms (cartesian axes, Ry/au):

     atom    1 type  3   force =     0.00000000    0.00000000    0.00000000
     atom    2 type  2   force =     0.00000000    0.00000000    0.00000000
     atom    3 type  1   force =     0.00000000    0.00000000    0.00000000
     atom    4 type  1   force =     0.00000000    0.00000000    0.00000000
     atom    5 type  1   force =     0.00000000   -0.00000000    0.00000000

     Total force =     0.000000     Total SCF correction =     0.000000

     Computing stress (Cartesian axis) and pressure

          total   stress  (Ry/bohr**3)                   (kbar)     P=   17.94
   0.00012192   0.00000000   0.00000000         17.94      0.00      0.00
   0.00000000   0.00012192   0.00000000          0.00     17.94      0.00
   0.00000000   0.00000000   0.00012192          0.00      0.00     17.94

     Writing output data file bto.save

     General routines

     Parallel routines

   This run was terminated on:   0:13:12  31Dec2017

   JOB DONE.