     Program PHONON v.6.1 (svn rev. 13369) starts on  7Jan2018 at  9:56: 3

     Reading data from directory:
     ./bto.save

   Info: using nr1, nr2, nr3 values from input

[...]

     IMPORTANT: XC functional enforced from input :
     Exchange-correlation      =  SLA  PW   PBE  PBE ( 1  4  3  4 0 0)
     Any further DFT definition will be discarded
     Please, verify this is what you really want

               file O.pbe-rrkjus.UPF: wavefunction(s)  2S renormalized

     Dynamical matrices for ( 4, 4, 4)  uniform grid of q-points
     (  18q-points):
       N         xq(1)         xq(2)         xq(3)
       1   0.000000000   0.000000000   0.000000000
       2   0.000000000   0.000000000   0.247184234
       3   0.000000000   0.000000000  -0.494368469
       4   0.000000000   0.247184234   0.247184234
       5   0.000000000   0.247184234  -0.494368469
       6   0.000000000  -0.494368469  -0.494368469
       7   0.239122868   0.000000000   0.000000000
       8   0.239122868   0.000000000   0.247184234
       9   0.239122868   0.000000000  -0.494368469
      10   0.239122868   0.247184234   0.247184234
      11   0.239122868   0.247184234  -0.494368469
      12   0.239122868  -0.494368469  -0.494368469
      13  -0.478245736   0.000000000   0.000000000
      14  -0.478245736   0.000000000   0.247184234
      15  -0.478245736   0.000000000  -0.494368469
      16  -0.478245736   0.247184234   0.247184234
      17  -0.478245736   0.247184234  -0.494368469
      18  -0.478245736  -0.494368469  -0.494368469

     Calculation of q =    0.0000000   0.0000000   0.0000000

     bravais-lattice index     =            0
     lattice parameter (alat)  =       7.4000  a.u.
     unit-cell volume          =     433.3637 (a.u.)^3
     number of atoms/cell      =            5
     number of atomic types    =            3
     kinetic-energy cut-off    =     100.0000  Ry
     charge density cut-off    =     800.0000  Ry
     convergence threshold     =      1.0E-12
     beta                      =       0.7000
     number of iterations used =            4
     Exchange-correlation      =  SLA  PW   PBE  PBE ( 1  4  3  4 0 0)

     celldm(1)=    7.40000  celldm(2)=    0.00000  celldm(3)=    0.00000
     celldm(4)=    0.00000  celldm(5)=    0.00000  celldm(6)=    0.00000

     crystal axes: (cart. coord. in units of alat)
               a(1) = (  1.0455  0.0000  0.0000 )
               a(2) = (  0.0000  1.0114  0.0000 )
               a(3) = (  0.0000  0.0000  1.0114 )

     reciprocal axes: (cart. coord. in units 2 pi/alat)
               b(1) = (  0.9565  0.0000  0.0000 )
               b(2) = (  0.0000  0.9887  0.0000 )
               b(3) = (  0.0000  0.0000  0.9887 )

     Atoms inside the unit cell:

     Cartesian axes

     site n.  atom      mass           positions (alat units)
        1     Ba 137.3300   tau(    1) = (   -0.02436    0.00000    0.00000  )
        2     Ti  47.8800   tau(    2) = (    0.48945    0.50570    0.50570  )
        3     O   15.9900   tau(    3) = (    0.02285    0.50570    0.50570  )
        4     O   15.9900   tau(    4) = (    0.53492    0.00000    0.50570  )
        5     O   15.9900   tau(    5) = (    0.53492    0.50570    0.00000  )

     Computing dynamical matrix for
                    q = (   0.0000000   0.0000000   0.0000000 )

      9 Sym.Ops. (with q -> -q+G )

     G cutoff = 1109.6696  (   5915 G-vectors)     FFT grid: ( 72, 72, 72)
     G cutoff =  554.8348  (   2092 G-vectors)  smooth grid: ( 50, 48, 48)
     number of k points=    18

     PseudoPot. # 1 for O  read from file:
     ../../PSP_DIR/O.pbe-rrkjus.UPF
     MD5 check sum: 390ba29e75625707450f3bd3f0eb6be9
     Pseudo is Ultrasoft, Zval =  6.0
     Generated by new atomic code, or converted to UPF format
     Using radial grid of 1269 points,  4 beta functions with:
                l(1) =   0
                l(2) =   0
                l(3) =   1
                l(4) =   1
     Q(r) pseudized with 0 coefficients

     PseudoPot. # 2 for Ti read from file:
     ../../PSP_DIR/Ti.pbe-sp-van_ak.UPF
     MD5 check sum: 8e4df49b7f0d34bbd5052bf3f5ea0213
     Pseudo is Ultrasoft, Zval = 12.0
     Generated by new atomic code, or converted to UPF format
     Using radial grid of  851 points,  6 beta functions with:
                l(1) =   0
                l(2) =   0
                l(3) =   1
                l(4) =   1
                l(5) =   2
                l(6) =   2
     Q(r) pseudized with  8 coefficients,  rinner =    1.000   1.000   1.000
                                                       1.000   1.000

     PseudoPot. # 3 for Ba read from file:
     ../../PSP_DIR/Ba.pbe-nsp-van.UPF
     MD5 check sum: a011de417d3466d8e94df216395bc359
     Pseudo is Ultrasoft + core correction, Zval = 10.0
     Generated by new atomic code, or converted to UPF format
     Using radial grid of  907 points,  6 beta functions with:
                l(1) =   0
                l(2) =   0
                l(3) =   1
                l(4) =   1
                l(5) =   2
                l(6) =   2
     Q(r) pseudized with  6 coefficients,  rinner =    1.200   1.200   1.200
                                                       1.200   1.200

     Mode symmetry, C_4v (4mm)  point group:

     Electric field:
     Dielectric constant
     Born effective charges in two ways

     Atomic displacements:
     There are  10 irreducible representations

     Representation     1      1 modes -A_1  G_1 D_1  To be done

[...]

     Representation     6      2 modes -E    G_5 D_5  To be done

[...]

     Representation    10      2 modes -E    G_5 D_5  To be done

     Alpha used in Ewald sum =   2.8000

     Electric Fields Calculation

      thresh= 1.000E-02 alpha_mix =  0.700 |ddv_scf|^2 =  3.503E-08

[...]

     End of electric fields calculation

          Dielectric constant in cartesian axis

          (       5.371325427       0.000000000       0.000000000 )
          (      -0.000000000       6.188687822      -0.000000000 )
          (       0.000000000      -0.000000000       6.188687822 )

          Effective charges (d Force / dE) in cartesian axis

           atom      1   Ba
      Ex  (        2.90285       -0.00000       -0.00000 )
      Ey  (        0.00000        2.64170        0.00000 )
      Ez  (        0.00000        0.00000        2.64170 )
           atom      2   Ti
      Ex  (        5.41798       -0.00000        0.00000 )
      Ey  (       -0.00000        6.91526       -0.00000 )
      Ez  (        0.00000       -0.00000        6.91526 )
           atom      3   O
      Ex  (       -4.39305       -0.00000        0.00000 )
      Ey  (       -0.00000       -1.99091        0.00000 )
      Ez  (        0.00000        0.00000       -1.99091 )
           atom      4   O
      Ex  (       -1.93948        0.00000        0.00000 )
      Ey  (       -0.00000       -5.52865       -0.00000 )
      Ez  (        0.00000        0.00000       -2.13630 )
           atom      5   O
      Ex  (       -1.93948        0.00000        0.00000 )
      Ey  (        0.00000       -2.13630        0.00000 )
      Ez  (        0.00000       -0.00000       -5.52865 )

     Representation #  1 mode #   1

     Self-consistent Calculation

[...]

     End of self-consistent calculation

     Convergence has been achieved

[...]

     Representation #  6 modes #   6  7

[...]

     Representation # 10 modes #  14 15

[...]

     Number of q in the star =    1
     List of q in the star:
          1   0.000000000   0.000000000   0.000000000

          Dielectric constant in cartesian axis

          (       5.371325427       0.000000000       0.000000000 )
          (      -0.000000000       6.188687822      -0.000000000 )
          (       0.000000000      -0.000000000       6.188687822 )

          Effective charges (d Force / dE) in cartesian axis

[...]

          Effective charges (d P / du) in cartesian axis

           atom      1   Ba
      Px  (        2.89557        0.00000        0.00000 )
      Py  (        0.00000        2.75293       -0.00000 )
      Pz  (        0.00000       -0.00000        2.75293 )
           atom      2   Ti
      Px  (        5.38372       -0.00000        0.00000 )
      Py  (        0.00000        6.89546        0.00000 )
      Pz  (        0.00000        0.00000        6.89546 )
           atom      3   O
      Px  (       -4.39264       -0.00000        0.00000 )
      Py  (        0.00000       -1.99415       -0.00000 )
      Pz  (        0.00000       -0.00000       -1.99415 )
           atom      4   O
      Px  (       -1.94030        0.00000        0.00000 )
      Py  (        0.00000       -5.52913       -0.00000 )
      Pz  (        0.00000        0.00000       -2.13803 )
           atom      5   O
      Px  (       -1.94030       -0.00000        0.00000 )
      Py  (        0.00000       -2.13803        0.00000 )
      Pz  (        0.00000       -0.00000       -5.52913 )

     Diagonalizing the dynamical matrix

     q = (    0.000000000   0.000000000   0.000000000 )

     freq (    1) =      -3.048251 [THz] =    -101.678713 [cm-1]
     freq (    2) =      -3.048251 [THz] =    -101.678713 [cm-1]
     freq (    3) =       0.418184 [THz] =      13.949119 [cm-1]
     freq (    4) =       3.236949 [THz] =     107.972997 [cm-1]
     freq (    5) =       3.236949 [THz] =     107.972997 [cm-1]
     freq (    6) =       3.920238 [THz] =     130.765077 [cm-1]
     freq (    7) =       3.945451 [THz] =     131.606080 [cm-1]
     freq (    8) =       3.945451 [THz] =     131.606080 [cm-1]
     freq (    9) =       7.884556 [THz] =     263.000480 [cm-1]
     freq (   10) =       8.521828 [THz] =     284.257586 [cm-1]
     freq (   11) =       8.521828 [THz] =     284.257586 [cm-1]
     freq (   12) =      10.150280 [THz] =     338.576901 [cm-1]
     freq (   13) =      14.227667 [THz] =     474.583891 [cm-1]
     freq (   14) =      14.227667 [THz] =     474.583891 [cm-1]
     freq (   15) =      16.130272 [THz] =     538.047962 [cm-1]

     Mode symmetry, C_4v (4mm)  point group:

     freq (  1 -  2) =       -101.7  [cm-1]   --> E    G_5 D_5    I+R
     freq (  3 -  3) =         13.9  [cm-1]   --> A_1  G_1 D_1    I+R
     freq (  4 -  5) =        108.0  [cm-1]   --> E    G_5 D_5    I+R
     freq (  6 -  6) =        130.8  [cm-1]   --> A_1  G_1 D_1    I+R
     freq (  7 -  8) =        131.6  [cm-1]   --> E    G_5 D_5    I+R
     freq (  9 -  9) =        263.0  [cm-1]   --> B_1  G_3 D_2    R
     freq ( 10 - 11) =        284.3  [cm-1]   --> E    G_5 D_5    I+R
     freq ( 12 - 12) =        338.6  [cm-1]   --> A_1  G_1 D_1    I+R
     freq ( 13 - 14) =        474.6  [cm-1]   --> E    G_5 D_5    I+R
     freq ( 15 - 15) =        538.0  [cm-1]   --> A_1  G_1 D_1    I+R

[...]

     bravais-lattice index     =            0
     lattice parameter (alat)  =       7.4000  a.u.
     unit-cell volume          =     433.3637 (a.u.)^3
     number of atoms/cell      =            5
     number of atomic types    =            3
     number of electrons       =        40.00
     number of Kohn-Sham states=           24
     kinetic-energy cutoff     =     100.0000  Ry
[...]

[...]

     atomic species   valence    mass     pseudopotential
        O              6.00    15.99000     O ( 1.00)
        Ti            12.00    47.88000     Ti( 1.00)
        Ba            10.00   137.33000     Ba( 1.00)

      8 Sym. Ops. (no inversion) found

[...]

     site n.     atom                  positions (alat units)
         1           Ba  tau(   1) = (  -0.0243650   0.0000000   0.0000000  )
         2           Ti  tau(   2) = (   0.4894495   0.5056957   0.5056957  )
         3           O   tau(   3) = (   0.0228482   0.5056957   0.5056957  )
         4           O   tau(   4) = (   0.5349219   0.0000000   0.5056957  )
         5           O   tau(   5) = (   0.5349219   0.5056957   0.0000000  )

     number of k points=   216

     Number of k-points >= 100: set verbosity='high' to print them.

     The potential is recalculated from file :
     ./_ph0/bto.save/charge-density.dat

     Starting wfc are   35 atomic wfcs

     Band Structure Calculation
     Davidson diagonalization with overlap

     ethr =  2.50E-11,  avg # of iterations = 20.6

     End of band structure calculation

     Number of k-points >= 100: set verbosity='high' to print the bands.

     highest occupied, lowest unoccupied level (ev):    10.1889   12.4948

     Writing output data file bto.save

[...]

      2 Sym.Ops. (no q -> -q+G )

[...]

     Mode symmetry, C_s (m)     point group:

[...]

     Representation     1      1 modes -A'  To be done

[...]

     Representation    11      1 modes -A''  To be done

[...]

     freq (  1 -  1) =        -10.7  [cm-1]   --> A''
     freq (  2 -  2) =         67.1  [cm-1]   --> A'
     freq (  3 -  3) =         99.5  [cm-1]   --> A''
     freq (  4 -  4) =        105.3  [cm-1]   --> A'
     freq (  5 -  5) =        150.1  [cm-1]   --> A'
     freq (  6 -  6) =        170.7  [cm-1]   --> A''
     freq (  7 -  7) =        209.4  [cm-1]   --> A'
     freq (  8 -  8) =        279.7  [cm-1]   --> A'
     freq (  9 -  9) =        299.4  [cm-1]   --> A'
     freq ( 10 - 10) =        304.7  [cm-1]   --> A''
     freq ( 11 - 11) =        334.8  [cm-1]   --> A'
     freq ( 12 - 12) =        450.6  [cm-1]   --> A''
     freq ( 13 - 13) =        474.0  [cm-1]   --> A'
     freq ( 14 - 14) =        524.1  [cm-1]   --> A'
     freq ( 15 - 15) =        676.1  [cm-1]   --> A'

[...]

     number of k points=    54
                       cart. coord. in units 2pi/alat
        k(    1) = (   0.0797076   0.0823947   0.0823947), wk =   0.0740741
        k(    2) = (   0.0797076   0.0823947  -0.4119737), wk =   0.0000000
        k(    3) = (   0.0797076   0.0823947   0.2471842), wk =   0.0740741
        k(    4) = (   0.0797076   0.0823947  -0.2471842), wk =   0.0000000
        k(    5) = (   0.0797076   0.0823947   0.4119737), wk =   0.0740741
        k(    6) = (   0.0797076   0.0823947  -0.0823947), wk =   0.0000000
        k(    7) = (   0.0797076   0.2471842   0.2471842), wk =   0.0740741
        k(    8) = (   0.0797076   0.2471842  -0.2471842), wk =   0.0000000
        k(    9) = (   0.0797076   0.2471842   0.4119737), wk =   0.0740741
        k(   10) = (   0.0797076   0.2471842  -0.0823947), wk =   0.0000000
        k(   11) = (   0.0797076   0.4119737   0.4119737), wk =   0.0740741
        k(   12) = (   0.0797076   0.4119737  -0.0823947), wk =   0.0000000
        k(   13) = (   0.2391229   0.0823947   0.0823947), wk =   0.0740741
        k(   14) = (   0.2391229   0.0823947  -0.4119737), wk =   0.0000000
        k(   15) = (   0.2391229   0.0823947   0.2471842), wk =   0.0740741
        k(   16) = (   0.2391229   0.0823947  -0.2471842), wk =   0.0000000
        k(   17) = (   0.2391229   0.0823947   0.4119737), wk =   0.0740741
        k(   18) = (   0.2391229   0.0823947  -0.0823947), wk =   0.0000000
        k(   19) = (   0.2391229   0.2471842   0.2471842), wk =   0.0740741
        k(   20) = (   0.2391229   0.2471842  -0.2471842), wk =   0.0000000
        k(   21) = (   0.2391229   0.2471842   0.4119737), wk =   0.0740741
        k(   22) = (   0.2391229   0.2471842  -0.0823947), wk =   0.0000000
        k(   23) = (   0.2391229   0.4119737   0.4119737), wk =   0.0740741
        k(   24) = (   0.2391229   0.4119737  -0.0823947), wk =   0.0000000
        k(   25) = (   0.3985381   0.0823947   0.0823947), wk =   0.0740741
        k(   26) = (   0.3985381   0.0823947  -0.4119737), wk =   0.0000000
        k(   27) = (   0.3985381   0.0823947   0.2471842), wk =   0.0740741
        k(   28) = (   0.3985381   0.0823947  -0.2471842), wk =   0.0000000
        k(   29) = (   0.3985381   0.0823947   0.4119737), wk =   0.0740741
        k(   30) = (   0.3985381   0.0823947  -0.0823947), wk =   0.0000000
        k(   31) = (   0.3985381   0.2471842   0.2471842), wk =   0.0740741
        k(   32) = (   0.3985381   0.2471842  -0.2471842), wk =   0.0000000
        k(   33) = (   0.3985381   0.2471842   0.4119737), wk =   0.0740741
        k(   34) = (   0.3985381   0.2471842  -0.0823947), wk =   0.0000000
        k(   35) = (   0.3985381   0.4119737   0.4119737), wk =   0.0740741
        k(   36) = (   0.3985381   0.4119737  -0.0823947), wk =   0.0000000
        k(   37) = (   0.0797076   0.2471842  -0.0823947), wk =   0.0740741
        k(   38) = (   0.0797076   0.2471842  -0.5767632), wk =   0.0000000
        k(   39) = (   0.0797076   0.4119737  -0.0823947), wk =   0.0740741
        k(   40) = (   0.0797076   0.4119737  -0.5767632), wk =   0.0000000
        k(   41) = (   0.0797076   0.4119737  -0.2471842), wk =   0.0740741
        k(   42) = (   0.0797076   0.4119737  -0.7415527), wk =   0.0000000
        k(   43) = (   0.2391229   0.2471842  -0.0823947), wk =   0.0740741
        k(   44) = (   0.2391229   0.2471842  -0.5767632), wk =   0.0000000
        k(   45) = (   0.2391229   0.4119737  -0.0823947), wk =   0.0740741
        k(   46) = (   0.2391229   0.4119737  -0.5767632), wk =   0.0000000
        k(   47) = (   0.2391229   0.4119737  -0.2471842), wk =   0.0740741
        k(   48) = (   0.2391229   0.4119737  -0.7415527), wk =   0.0000000
        k(   49) = (   0.3985381   0.2471842  -0.0823947), wk =   0.0740741
        k(   50) = (   0.3985381   0.2471842  -0.5767632), wk =   0.0000000
        k(   51) = (   0.3985381   0.4119737  -0.0823947), wk =   0.0740741
        k(   52) = (   0.3985381   0.4119737  -0.5767632), wk =   0.0000000
        k(   53) = (   0.3985381   0.4119737  -0.2471842), wk =   0.0740741
        k(   54) = (   0.3985381   0.4119737  -0.7415527), wk =   0.0000000

[...]

          k = 0.0797 0.0824 0.0824 (  7301 PWs)   bands (ev):

   -46.1305 -22.4600 -22.3681 -22.3679 -14.3281  -6.5651  -5.9559  -5.8551
     0.4593   0.4787   0.5923   7.6581   7.8097   7.8516   8.4818   8.5037
     8.9488   9.3094   9.7549   9.8226  12.4948  12.8228  12.8399  14.8903

[...]

          k = 0.3985 0.4120-0.7416 (  7320 PWs)   bands (ev):

   -46.1283 -22.4904 -22.4150 -22.3893 -14.1303  -6.0601  -5.8682  -5.7121
     0.0572   0.1344   0.4109   6.1126   6.6165   7.0522   7.2572   7.8110
     7.9116   9.5063   9.7239   9.8862  14.0782  14.1676  14.3156  16.6486

[...]

      5 Sym.Ops. (with q -> -q+G )

[...]

     Mode symmetry, C_2v (mm2)  point group:

[...]

     Representation    15      1 modes -B_2  D_4  S_4  To be done

[...]

     Mode symmetry, C_2v (mm2)  point group:

     freq (  1 -  1) =         62.8  [cm-1]   --> A_2  D_2  S_2
     freq (  2 -  2) =         84.8  [cm-1]   --> A_1  D_1  S_1
     freq (  3 -  3) =         89.4  [cm-1]   --> B_2  D_4  S_4
     freq (  4 -  4) =        133.3  [cm-1]   --> B_1  D_3  S_3
     freq (  5 -  5) =        174.7  [cm-1]   --> B_1  D_3  S_3
     freq (  6 -  6) =        209.1  [cm-1]   --> A_2  D_2  S_2
     freq (  7 -  7) =        265.3  [cm-1]   --> A_1  D_1  S_1
     freq (  8 -  8) =        299.2  [cm-1]   --> A_1  D_1  S_1
     freq (  9 -  9) =        316.0  [cm-1]   --> A_1  D_1  S_1
     freq ( 10 - 10) =        325.0  [cm-1]   --> B_2  D_4  S_4
     freq ( 11 - 11) =        327.6  [cm-1]   --> B_1  D_3  S_3
     freq ( 12 - 12) =        430.6  [cm-1]   --> A_2  D_2  S_2
     freq ( 13 - 13) =        509.5  [cm-1]   --> B_1  D_3  S_3
     freq ( 14 - 14) =        515.9  [cm-1]   --> A_1  D_1  S_1
     freq ( 15 - 15) =        668.6  [cm-1]   --> B_1  D_3  S_3

[...]

     Number of q in the star =    4
     List of q in the star:
          1   0.000000000   0.247184234   0.247184234
          2   0.000000000  -0.247184234  -0.247184234
          3   0.000000000   0.247184234  -0.247184234
          4   0.000000000  -0.247184234   0.247184234

     Diagonalizing the dynamical matrix

     q = (    0.000000000   0.247184234   0.247184234 )

     freq (    1) =       2.039481 [THz] =      68.029766 [cm-1]
     freq (    2) =       2.393959 [THz] =      79.853872 [cm-1]
     freq (    3) =       3.158356 [THz] =     105.351411 [cm-1]
     freq (    4) =       5.416631 [THz] =     180.679353 [cm-1]
     freq (    5) =       5.503828 [THz] =     183.587928 [cm-1]
     freq (    6) =       6.914140 [THz] =     230.630888 [cm-1]
     freq (    7) =       7.226221 [THz] =     241.040793 [cm-1]
     freq (    8) =       8.775345 [THz] =     292.714014 [cm-1]
     freq (    9) =       9.642569 [THz] =     321.641477 [cm-1]
     freq (   10) =       9.974903 [THz] =     332.726957 [cm-1]
     freq (   11) =      10.406819 [THz] =     347.134114 [cm-1]
     freq (   12) =      13.638139 [THz] =     454.919358 [cm-1]
     freq (   13) =      14.348790 [THz] =     478.624127 [cm-1]
     freq (   14) =      15.425099 [THz] =     514.525908 [cm-1]
     freq (   15) =      21.030537 [THz] =     701.503191 [cm-1]

[...]

     freq (  1 -  1) =         68.0  [cm-1]   --> A''
     freq (  2 -  2) =         79.9  [cm-1]   --> A'
     freq (  3 -  3) =        105.4  [cm-1]   --> A'
     freq (  4 -  4) =        180.7  [cm-1]   --> A''
     freq (  5 -  5) =        183.6  [cm-1]   --> A'
     freq (  6 -  6) =        230.6  [cm-1]   --> A'
     freq (  7 -  7) =        241.0  [cm-1]   --> A''
     freq (  8 -  8) =        292.7  [cm-1]   --> A''
     freq (  9 -  9) =        321.6  [cm-1]   --> A''
     freq ( 10 - 10) =        332.7  [cm-1]   --> A'
     freq ( 11 - 11) =        347.1  [cm-1]   --> A'
     freq ( 12 - 12) =        454.9  [cm-1]   --> A''
     freq ( 13 - 13) =        478.6  [cm-1]   --> A'
     freq ( 14 - 14) =        514.5  [cm-1]   --> A'
     freq ( 15 - 15) =        701.5  [cm-1]   --> A'

     Calculation of q =    0.0000000   0.2471842  -0.4943685

[...]

   Info: using nr1, nr2, nr3 values from input

     bravais-lattice index     =            0
     lattice parameter (alat)  =       7.4000  a.u.
     unit-cell volume          =     433.3637 (a.u.)^3
     number of atoms/cell      =            5
     number of atomic types    =            3
     number of electrons       =        40.00
     number of Kohn-Sham states=           24
     kinetic-energy cutoff     =     100.0000  Ry
     charge density cutoff     =     800.0000  Ry
     Exchange-correlation      =  SLA  PW   PBE  PBE ( 1  4  3  4 0 0)

[...]

     atomic species   valence    mass     pseudopotential
        O              6.00    15.99000     O ( 1.00)
        Ti            12.00    47.88000     Ti( 1.00)
        Ba            10.00   137.33000     Ba( 1.00)

      8 Sym. Ops. (no inversion) found

[...]

     site n.     atom                  positions (alat units)
         1           Ba  tau(   1) = (  -0.0243650   0.0000000   0.0000000  )
         2           Ti  tau(   2) = (   0.4894495   0.5056957   0.5056957  )
         3           O   tau(   3) = (   0.0228482   0.5056957   0.5056957  )
         4           O   tau(   4) = (   0.5349219   0.0000000   0.5056957  )
         5           O   tau(   5) = (   0.5349219   0.5056957   0.0000000  )

     number of k points=   216

     Number of k-points >= 100: set verbosity='high' to print them.

     The potential is recalculated from file :
     ./_ph0/bto.save/charge-density.dat

     Starting wfc are   35 atomic wfcs

     Band Structure Calculation
     Davidson diagonalization with overlap

     ethr =  2.50E-11,  avg # of iterations = 20.6

     End of band structure calculation

     Number of k-points >= 100: set verbosity='high' to print the bands.

     highest occupied, lowest unoccupied level (ev):    10.1889   12.4948

     Writing output data file bto.save

     bravais-lattice index     =            0
     lattice parameter (alat)  =       7.4000  a.u.
     unit-cell volume          =     433.3637 (a.u.)^3
     number of atoms/cell      =            5
     number of atomic types    =            3
     kinetic-energy cut-off    =     100.0000  Ry
     charge density cut-off    =     800.0000  Ry
     convergence threshold     =      1.0E-12
     beta                      =       0.7000
     number of iterations used =            4
     Exchange-correlation      =  SLA  PW   PBE  PBE ( 1  4  3  4 0 0)

     celldm(1)=    7.40000  celldm(2)=    0.00000  celldm(3)=    0.00000
     celldm(4)=    0.00000  celldm(5)=    0.00000  celldm(6)=    0.00000

     crystal axes: (cart. coord. in units of alat)
               a(1) = (  1.0455  0.0000  0.0000 )
               a(2) = (  0.0000  1.0114  0.0000 )
               a(3) = (  0.0000  0.0000  1.0114 )

     reciprocal axes: (cart. coord. in units 2 pi/alat)
               b(1) = (  0.9565  0.0000  0.0000 )
               b(2) = (  0.0000  0.9887  0.0000 )
               b(3) = (  0.0000  0.0000  0.9887 )

     Atoms inside the unit cell:

     Cartesian axes

     site n.  atom      mass           positions (alat units)
        1     Ba 137.3300   tau(    1) = (   -0.02436    0.00000    0.00000  )
        2     Ti  47.8800   tau(    2) = (    0.48945    0.50570    0.50570  )
        3     O   15.9900   tau(    3) = (    0.02285    0.50570    0.50570  )
        4     O   15.9900   tau(    4) = (    0.53492    0.00000    0.50570  )
        5     O   15.9900   tau(    5) = (    0.53492    0.50570    0.00000  )

     Computing dynamical matrix for
                    q = (   0.0000000   0.2471842  -0.4943685 )

      2 Sym.Ops. (no q -> -q+G )

     G cutoff = 1109.6696  (   5915 G-vectors)     FFT grid: ( 72, 72, 72)
     G cutoff =  554.8348  (   2092 G-vectors)  smooth grid: ( 50, 48, 48)
     number of k points=   216

     PseudoPot. # 1 for O  read from file:
     ../../PSP_DIR/O.pbe-rrkjus.UPF
     MD5 check sum: 390ba29e75625707450f3bd3f0eb6be9
     Pseudo is Ultrasoft, Zval =  6.0
     Generated by new atomic code, or converted to UPF format
     Using radial grid of 1269 points,  4 beta functions with:
                l(1) =   0
                l(2) =   0
                l(3) =   1
                l(4) =   1
     Q(r) pseudized with 0 coefficients

     PseudoPot. # 2 for Ti read from file:
     ../../PSP_DIR/Ti.pbe-sp-van_ak.UPF
     MD5 check sum: 8e4df49b7f0d34bbd5052bf3f5ea0213
     Pseudo is Ultrasoft, Zval = 12.0
     Generated by new atomic code, or converted to UPF format
     Using radial grid of  851 points,  6 beta functions with:
                l(1) =   0
                l(2) =   0
                l(3) =   1
                l(4) =   1
                l(5) =   2
                l(6) =   2
     Q(r) pseudized with  8 coefficients,  rinner =    1.000   1.000   1.000
                                                       1.000   1.000

     PseudoPot. # 3 for Ba read from file:
     ../../PSP_DIR/Ba.pbe-nsp-van.UPF
     MD5 check sum: a011de417d3466d8e94df216395bc359
     Pseudo is Ultrasoft + core correction, Zval = 10.0
     Generated by new atomic code, or converted to UPF format
     Using radial grid of  907 points,  6 beta functions with:
                l(1) =   0
                l(2) =   0
                l(3) =   1
                l(4) =   1
                l(5) =   2
                l(6) =   2
     Q(r) pseudized with  6 coefficients,  rinner =    1.200   1.200   1.200
                                                       1.200   1.200

     Mode symmetry, C_s (m)     point group:

     Atomic displacements:
     There are  15 irreducible representations

[...]

     Representation     7      1 modes -A'  To be done

[...]

     Representation    15      1 modes -A''  To be done

     Alpha used in Ewald sum =   2.8000

[...]

     End of self-consistent calculation

     Convergence has been achieved

     Representation #  3 mode #   3

     Self-consistent Calculation

[...]

      thresh= 8.145E-05 alpha_mix =  0.700 |ddv_scf|^2 =  2.626E-08

     max_seconds     =    3400.00

     INITIALIZATION:

     DYNAMICAL MATRIX:

      General routines

   This run was terminated on:  10:52:48   7Jan2018

   JOB DONE.