     Program PWSCF v.6.1 (svn rev. 13369) starts on 31Dec2017 at 12:14:18

     Current dimensions of program PWSCF are:
     Max number of different atomic species (ntypx) = 10
     Max number of k-points (npk) =  40000
     Max angular momentum in pseudopotentials (lmaxx) =  3

     Subspace diagonalization in iterative solution of the eigenvalue problem:
     a serial algorithm will be used

     Title:
     cubic BaTiO3 at 7.40 lattice parameter. xc=PZ

     bravais-lattice index     =            1
     lattice parameter (alat)  =       7.4000  a.u.
     unit-cell volume          =     405.2240 (a.u.)^3
     number of atoms/cell      =            5
     number of atomic types    =            3
     number of electrons       =        40.00
     number of Kohn-Sham states=           24
     kinetic-energy cutoff     =     100.0000  Ry
     charge density cutoff     =     800.0000  Ry
     convergence threshold     =      1.0E-12
     mixing beta               =       0.6000
     number of iterations used =            8  plain     mixing
     Exchange-correlation      = SLA-PZ-NOGX-NOGC ( 1  1  0  0 0 0)
     nstep                     =           50

     celldm(1)=   7.400000  celldm(2)=   0.000000  celldm(3)=   0.000000
     celldm(4)=   0.000000  celldm(5)=   0.000000  celldm(6)=   0.000000

     crystal axes: (cart. coord. in units of alat)
               a(1) = (   1.000000   0.000000   0.000000 )
               a(2) = (   0.000000   1.000000   0.000000 )
               a(3) = (   0.000000   0.000000   1.000000 )

     reciprocal axes: (cart. coord. in units 2 pi/alat)
               b(1) = (  1.000000  0.000000  0.000000 )
               b(2) = (  0.000000  1.000000  0.000000 )
               b(3) = (  0.000000  0.000000  1.000000 )

     PseudoPot. # 1 for O  read from file:
     ../../PSP_DIR/O.pz-van_ak.UPF
     MD5 check sum: d814fcb982dd9af4fc6452aae6bb9318
     Pseudo is Ultrasoft, Zval =  6.0
     Generated by new atomic code, or converted to UPF format
     Using radial grid of  737 points,  4 beta functions with:
                l(1) =   0
                l(2) =   0
                l(3) =   1
                l(4) =   1
     Q(r) pseudized with  8 coefficients,  rinner =    0.800   0.800   0.800

     PseudoPot. # 2 for Ti read from file:
     ../../PSP_DIR/Ti.pz-sp-van_ak.UPF
     MD5 check sum: 545d0e6e05332b8871a8093f427cb0ca
     Pseudo is Ultrasoft, Zval = 12.0
     Generated by new atomic code, or converted to UPF format
     Using radial grid of  851 points,  6 beta functions with:
                l(1) =   0
                l(2) =   0
                l(3) =   1
                l(4) =   1
                l(5) =   2
                l(6) =   2
     Q(r) pseudized with  8 coefficients,  rinner =    1.000   1.000   1.000
                                                       1.000   1.000

     PseudoPot. # 3 for Ba read from file:
     ../../PSP_DIR/Ba.pz-sp-hgh.UPF
     MD5 check sum: 155c4e4bbe33bd45901c985a874b3acf
     Pseudo is Norm-conserving, Zval = 10.0
     Generated in analytical, separable form
     Using radial grid of 1251 points,  6 beta functions with:
                l(1) =   0
                l(2) =   0
                l(3) =   1
                l(4) =   1
                l(5) =   2
                l(6) =   3

     atomic species   valence    mass     pseudopotential
        O              6.00    15.99000     O ( 1.00)
        Ti            12.00    47.88000     Ti( 1.00)
        Ba            10.00   137.33000     Ba( 1.00)

     48 Sym. Ops., with inversion, found

   Cartesian axes

     site n.     atom                  positions (alat units)
         1           Ba  tau(   1) = (   0.0000000   0.0000000   0.0000000  )
         2           Ti  tau(   2) = (   0.5000000   0.5000000   0.5000000  )
         3           O   tau(   3) = (   0.0000000   0.5000000   0.5000000  )
         4           O   tau(   4) = (   0.5000000   0.0000000   0.5000000  )
         5           O   tau(   5) = (   0.5000000   0.5000000   0.0000000  )

     number of k points=    10
                       cart. coord. in units 2pi/alat
        k(    1) = (   0.0833333   0.0833333   0.0833333), wk =   0.0740741
        k(    2) = (   0.0833333   0.0833333   0.2500000), wk =   0.2222222
        k(    3) = (   0.0833333   0.0833333   0.4166667), wk =   0.2222222
        k(    4) = (   0.0833333   0.2500000   0.2500000), wk =   0.2222222
        k(    5) = (   0.0833333   0.2500000   0.4166667), wk =   0.4444444
        k(    6) = (   0.0833333   0.4166667   0.4166667), wk =   0.2222222
        k(    7) = (   0.2500000   0.2500000   0.2500000), wk =   0.0740741
        k(    8) = (   0.2500000   0.2500000   0.4166667), wk =   0.2222222
        k(    9) = (   0.2500000   0.4166667   0.4166667), wk =   0.2222222
        k(   10) = (   0.4166667   0.4166667   0.4166667), wk =   0.0740741

     Initial potential from superposition of free atoms

     starting charge   28.99996, renormalised to   40.00000
     Starting wfc are   22 randomized atomic wfcs +    2 random wfc

     Self-consistent Calculation

     iteration #  1     ecut=   100.00 Ry     beta=0.60
     Davidson diagonalization with overlap
     ethr =  1.00E-02,  avg # of iterations = 12.0

     total energy              =      56.12846324 Ry
     Harris-Foulkes estimate   =    -388.55916160 Ry
     estimated scf accuracy    <     586.78987052 Ry

[...]

     negative rho (up, down):  1.066E-07 0.000E+00

[...]

          k = 0.0833 0.0833 0.0833     band energies (ev):

   -37.4824 -16.5019 -14.7016 -14.7014 -14.6893  -5.4658  -4.6726  -4.6693
    -1.3795  -1.3777  -1.2245   8.8386   9.2002   9.2050   9.4542   9.4689
     9.8905  10.9038  11.1295  11.1351  14.7349  15.8499  16.1303  16.1686

[...]

     highest occupied, lowest unoccupied level (ev):    11.1351   14.7349

!    total energy              =    -264.39610321 Ry
     Harris-Foulkes estimate   =    -265.45064068 Ry
     estimated scf accuracy    <       1.81353775 Ry

     The total energy is the sum of the following terms:

     one-electron contribution =     -62.96287085 Ry
     hartree contribution      =      49.55118355 Ry
     xc contribution           =     -42.43387644 Ry
     ewald contribution        =    -211.91466263 Ry
     scf correction            =       3.36412317 Ry

[...]

     iteration # 17     ecut=   100.00 Ry     beta=0.60
     Davidson diagonalization with overlap
     c_bands:  2 eigenvalues not converged
     ethr =  2.43E-03,  avg # of iterations = 10.7

[...]

     End of self-consistent calculation

          k = 0.0833 0.0833 0.0833 (  6850 PWs)   bands (ev):

[...]

     one-electron contribution =     -68.20450049 Ry
     hartree contribution      =      58.11722803 Ry
     xc contribution           =     -42.80425163 Ry
     ewald contribution        =    -211.91466263 Ry

     convergence has been achieved in  36 iterations

     Forces acting on atoms (cartesian axes, Ry/au):

     atom    1 type  3   force =     0.00000000   -0.00000000    0.00000000
     atom    2 type  2   force =     0.00000000    0.00000000    0.00000000
     atom    3 type  1   force =     0.00000000    0.00000000    0.00000000
     atom    4 type  1   force =     0.00000000    0.00000000    0.00000000
     atom    5 type  1   force =     0.00000000    0.00000000    0.00000000

     Total force =     0.000000     Total SCF correction =     0.000000

     Computing stress (Cartesian axis) and pressure

          total   stress  (Ry/bohr**3)                   (kbar)     P=   28.77
   0.00019561   0.00000000   0.00000000         28.77      0.00      0.00
   0.00000000   0.00019561   0.00000000          0.00     28.77      0.00
   0.00000000   0.00000000   0.00019561          0.00      0.00     28.77

     BFGS Geometry Optimization

     number of scf cycles    =   1
     number of bfgs steps    =   0

     enthalpy new            =    -264.8061867236 Ry

     new trust radius        =       0.0196881468 bohr
     new conv_thr            =            1.0E-12 Ry

     new unit-cell volume =    411.19801 a.u.^3 (    60.93326 Ang^3 )
     density =      6.35457 g/cm^3

CELL_PARAMETERS (alat=  7.40000000)
   1.004890207   0.000000000   0.000000000
   0.000000000   1.004890207   0.000000000
   0.000000000   0.000000000   1.004890207

ATOMIC_POSITIONS (crystal)
Ba       0.000000000  -0.000000000   0.000000000
Ti       0.500000000   0.500000000   0.500000000
O        0.000000000   0.500000000   0.500000000
O        0.500000000   0.000000000   0.500000000
O        0.500000000   0.500000000   0.000000000

     Writing output data file bto.save
     NEW-OLD atomic charge density approx. for the potential

     negative rho (up, down):  2.710E-08 0.000E+00
     extrapolated charge   40.42132, renormalised to   40.00000

[...]

     number of scf cycles    =   2
     number of bfgs steps    =   1

     enthalpy old            =    -264.8061867236 Ry
     enthalpy new            =    -264.8067552915 Ry

     CASE: enthalpy_new < enthalpy_old

     new trust radius        =       0.0006950161 bohr
     new conv_thr            =            1.0E-14 Ry

     new unit-cell volume =    410.98664 a.u.^3 (    60.90194 Ang^3 )
     density =      6.35784 g/cm^3

[...]

ATOMIC_POSITIONS (crystal)
Ba       0.000000000  -0.000000000   0.000000000
Ti       0.500000000   0.500000000   0.500000000
O        0.000000000   0.500000000   0.500000000
O        0.500000000  -0.000000000   0.500000000
O        0.500000000   0.500000000  -0.000000000

     Writing output data file bto.save
     NEW-OLD atomic charge density approx. for the potential
     extrapolated charge   39.98509, renormalised to   40.00000

[...]

     bfgs converged in   3 scf cycles and   2 bfgs steps
     (criteria: energy <  1.0E-04 Ry, force <  1.0E-03Ry/Bohr, cell <  5.0E-01kbar)

     End of BFGS Geometry Optimization

     Final enthalpy =    -264.8067560540 Ry
Begin final coordinates
     new unit-cell volume =    410.98664 a.u.^3 (    60.90194 Ang^3 )
     density =      6.35784 g/cm^3

CELL_PARAMETERS (alat=  7.40000000)
   1.004717997   0.000000000   0.000000000
   0.000000000   1.004717997   0.000000000
   0.000000000   0.000000000   1.004717997

ATOMIC_POSITIONS (crystal)
Ba       0.000000000  -0.000000000   0.000000000
Ti       0.500000000   0.500000000   0.500000000
O        0.000000000   0.500000000   0.500000000
O        0.500000000  -0.000000000   0.500000000
O        0.500000000   0.500000000  -0.000000000
End final coordinates

     A final scf calculation at the relaxed structure.
     The G-vectors are recalculated for the final unit cell
     Results may differ from those at the preceding step.

     Title:
     cubic BaTiO3 at 7.40 lattice parameter. xc=PZ

     bravais-lattice index     =            1
     lattice parameter (alat)  =       7.4000  a.u.
     unit-cell volume          =     410.9866 (a.u.)^3
     number of atoms/cell      =            5
     number of atomic types    =            3
     number of electrons       =        40.00
     number of Kohn-Sham states=           24
     kinetic-energy cutoff     =     100.0000  Ry
     charge density cutoff     =     800.0000  Ry
     convergence threshold     =      1.0E-14
     mixing beta               =       0.6000
     number of iterations used =            8  plain     mixing
     Exchange-correlation      = SLA-PZ-NOGX-NOGC ( 1  1  0  0 0 0)

     celldm(1)=   7.400000  celldm(2)=   0.000000  celldm(3)=   0.000000
     celldm(4)=   0.000000  celldm(5)=   0.000000  celldm(6)=   0.000000

     crystal axes: (cart. coord. in units of alat)
               a(1) = (   1.004718   0.000000   0.000000 )
               a(2) = (   0.000000   1.004718   0.000000 )
               a(3) = (   0.000000   0.000000   1.004718 )

     reciprocal axes: (cart. coord. in units 2 pi/alat)
               b(1) = (  0.995304  0.000000  0.000000 )
               b(2) = (  0.000000  0.995304  0.000000 )
               b(3) = (  0.000000  0.000000  0.995304 )

     PseudoPot. # 1 for O  read from file:
     ../../PSP_DIR/O.pz-van_ak.UPF
     MD5 check sum: d814fcb982dd9af4fc6452aae6bb9318
     Pseudo is Ultrasoft, Zval =  6.0
     Generated by new atomic code, or converted to UPF format
     Using radial grid of  737 points,  4 beta functions with:
                l(1) =   0
                l(2) =   0
                l(3) =   1
                l(4) =   1
     Q(r) pseudized with  8 coefficients,  rinner =    0.800   0.800   0.800

     PseudoPot. # 2 for Ti read from file:
     ../../PSP_DIR/Ti.pz-sp-van_ak.UPF
     MD5 check sum: 545d0e6e05332b8871a8093f427cb0ca
     Pseudo is Ultrasoft, Zval = 12.0
     Generated by new atomic code, or converted to UPF format
     Using radial grid of  851 points,  6 beta functions with:
                l(1) =   0
                l(2) =   0
                l(3) =   1
                l(4) =   1
                l(5) =   2
                l(6) =   2
     Q(r) pseudized with  8 coefficients,  rinner =    1.000   1.000   1.000
                                                       1.000   1.000

     PseudoPot. # 3 for Ba read from file:
     ../../PSP_DIR/Ba.pz-sp-hgh.UPF
     MD5 check sum: 155c4e4bbe33bd45901c985a874b3acf
     Pseudo is Norm-conserving, Zval = 10.0
     Generated in analytical, separable form
     Using radial grid of 1251 points,  6 beta functions with:
                l(1) =   0
                l(2) =   0
                l(3) =   1
                l(4) =   1
                l(5) =   2
                l(6) =   3

     atomic species   valence    mass     pseudopotential
        O              6.00    15.99000     O ( 1.00)
        Ti            12.00    47.88000     Ti( 1.00)
        Ba            10.00   137.33000     Ba( 1.00)

     48 Sym. Ops., with inversion, found

   Cartesian axes

     site n.     atom                  positions (alat units)
         1           Ba  tau(   1) = (   0.0000000  -0.0000000   0.0000000  )
         2           Ti  tau(   2) = (   0.5023590   0.5023590   0.5023590  )
         3           O   tau(   3) = (   0.0000000   0.5023590   0.5023590  )
         4           O   tau(   4) = (   0.5023590  -0.0000000   0.5023590  )
         5           O   tau(   5) = (   0.5023590   0.5023590  -0.0000000  )

     number of k points=    10
                       cart. coord. in units 2pi/alat
        k(    1) = (   0.0829420   0.0829420   0.0829420), wk =   0.0740741
        k(    2) = (   0.0829420   0.0829420   0.2488260), wk =   0.2222222
        k(    3) = (   0.0829420   0.0829420   0.4147101), wk =   0.2222222
        k(    4) = (   0.0829420   0.2488260   0.2488260), wk =   0.2222222
        k(    5) = (   0.0829420   0.2488260   0.4147101), wk =   0.4444444
        k(    6) = (   0.0829420   0.4147101   0.4147101), wk =   0.2222222
        k(    7) = (   0.2488260   0.2488260   0.2488260), wk =   0.0740741
        k(    8) = (   0.2488260   0.2488260   0.4147101), wk =   0.2222222
        k(    9) = (   0.2488260   0.4147101   0.4147101), wk =   0.2222222
        k(   10) = (   0.4147101   0.4147101   0.4147101), wk =   0.0740741

     Initial potential from superposition of free atoms

     starting charge   28.99996, renormalised to   40.00000
     Starting wfc are   22 randomized atomic wfcs +    2 random wfc

     Writing output data file bto.save

     Self-consistent Calculation

     iteration #  1     ecut=   100.00 Ry     beta=0.60
     Davidson diagonalization with overlap
     c_bands:  1 eigenvalues not converged
     c_bands:  2 eigenvalues not converged
     c_bands:  2 eigenvalues not converged
     c_bands:  2 eigenvalues not converged
     c_bands:  1 eigenvalues not converged
     c_bands:  1 eigenvalues not converged
     ethr =  1.00E-06,  avg # of iterations = 19.6

[...]

     negative rho (up, down):  1.088E-07 0.000E+00

[...]

          k = 0.4147 0.4147 0.4147     band energies (ev):

[...]

     one-electron contribution =     -69.60969761 Ry
     hartree contribution      =      58.31363122 Ry
     xc contribution           =     -42.72790047 Ry
     ewald contribution        =    -210.91954476 Ry
     scf correction            =       0.13777863 Ry

[...]

     total energy              =    -264.80684792 Ry
     Harris-Foulkes estimate   =    -264.80684792 Ry
     estimated scf accuracy    <          3.9E-14 Ry

     iteration # 40     ecut=   100.00 Ry     beta=0.60
     Davidson diagonalization with overlap
     ethr =  1.00E-13,  avg # of iterations =  1.0

     End of self-consistent calculation

[...]

          k = 0.4147 0.4147 0.4147 (  6935 PWs)   bands (ev):

   -44.9659 -21.6110 -21.6108 -21.6108 -13.6537  -5.0736  -4.9440  -4.9440
     0.2318   0.2318   0.4165   6.2993   6.8464   6.8464   8.0942   8.3695
     8.3695  10.5339  10.5339  10.6391  15.1078  15.1078  15.1120  18.0828

     highest occupied, lowest unoccupied level (ev):    10.6391   12.8207

!    total energy              =    -264.80684792 Ry
     Harris-Foulkes estimate   =    -264.80684792 Ry
     estimated scf accuracy    <          6.8E-15 Ry

     The total energy is the sum of the following terms:

     one-electron contribution =     -69.59296819 Ry
     hartree contribution      =      58.45609347 Ry
     xc contribution           =     -42.75042843 Ry
     ewald contribution        =    -210.91954476 Ry

     convergence has been achieved in  40 iterations

     Forces acting on atoms (cartesian axes, Ry/au):

     atom    1 type  3   force =     0.00000000    0.00000000    0.00000000
     atom    2 type  2   force =     0.00000000    0.00000000    0.00000000
     atom    3 type  1   force =     0.00000000   -0.00000000    0.00000000
     atom    4 type  1   force =     0.00000000    0.00000000    0.00000000
     atom    5 type  1   force =     0.00000000    0.00000000   -0.00000000

     Total force =     0.000000     Total SCF correction =     0.000000

     Computing stress (Cartesian axis) and pressure

          total   stress  (Ry/bohr**3)                   (kbar)     P=    0.29
   0.00000200   0.00000000   0.00000000          0.29      0.00      0.00
   0.00000000   0.00000200   0.00000000          0.00      0.29      0.00
   0.00000000   0.00000000   0.00000200          0.00      0.00      0.29

     Writing output data file bto.save

     General routines

     Parallel routines

   This run was terminated on:  12:14:53  31Dec2017

   JOB DONE.