     Program PWSCF v.6.1 (svn rev. 13369) starts on  5Jan2018 at 11:25:13

     Current dimensions of program PWSCF are:
     Max number of different atomic species (ntypx) = 10
     Max number of k-points (npk) =  40000
     Max angular momentum in pseudopotentials (lmaxx) =  3

     Subspace diagonalization in iterative solution of the eigenvalue problem:
     a serial algorithm will be used

     Title:
     cubic BaTiO3 at 7.40 lattice parameter. xc=PZ

     bravais-lattice index     =            1
     lattice parameter (alat)  =       7.4000  a.u.
     unit-cell volume          =     405.2240 (a.u.)^3
     number of atoms/cell      =            5
     number of atomic types    =            3
     number of electrons       =        40.00
     number of Kohn-Sham states=           24
     kinetic-energy cutoff     =     100.0000  Ry
     charge density cutoff     =     800.0000  Ry
     convergence threshold     =      1.0E-12
     mixing beta               =       0.6000
     number of iterations used =            8  plain     mixing
     Exchange-correlation      = SLA-PZ-NOGX-NOGC ( 1  1  0  0 0 0)
     nstep                     =           50

     celldm(1)=   7.400000  celldm(2)=   0.000000  celldm(3)=   0.000000
     celldm(4)=   0.000000  celldm(5)=   0.000000  celldm(6)=   0.000000

     crystal axes: (cart. coord. in units of alat)
               a(1) = (   1.000000   0.000000   0.000000 )
               a(2) = (   0.000000   1.000000   0.000000 )
               a(3) = (   0.000000   0.000000   1.000000 )

     reciprocal axes: (cart. coord. in units 2 pi/alat)
               b(1) = (  1.000000  0.000000  0.000000 )
               b(2) = (  0.000000  1.000000  0.000000 )
               b(3) = (  0.000000  0.000000  1.000000 )

     PseudoPot. # 1 for O  read from file:
     ../../PSP_DIR/O.pz-van_ak.UPF
     MD5 check sum: d814fcb982dd9af4fc6452aae6bb9318
     Pseudo is Ultrasoft, Zval =  6.0
     Generated by new atomic code, or converted to UPF format
     Using radial grid of  737 points,  4 beta functions with:
                l(1) =   0
                l(2) =   0
                l(3) =   1
                l(4) =   1
     Q(r) pseudized with  8 coefficients,  rinner =    0.800   0.800   0.800

     PseudoPot. # 2 for Ti read from file:
     ../../PSP_DIR/Ti.pz-sp-van_ak.UPF
     MD5 check sum: 545d0e6e05332b8871a8093f427cb0ca
     Pseudo is Ultrasoft, Zval = 12.0
     Generated by new atomic code, or converted to UPF format
     Using radial grid of  851 points,  6 beta functions with:
                l(1) =   0
                l(2) =   0
                l(3) =   1
                l(4) =   1
                l(5) =   2
                l(6) =   2
     Q(r) pseudized with  8 coefficients,  rinner =    1.000   1.000   1.000
                                                       1.000   1.000

     PseudoPot. # 3 for Ba read from file:
     ../../PSP_DIR/Ba.pz-sp-hgh.UPF
     MD5 check sum: 155c4e4bbe33bd45901c985a874b3acf
     Pseudo is Norm-conserving, Zval = 10.0
     Generated in analytical, separable form
     Using radial grid of 1251 points,  6 beta functions with:
                l(1) =   0
                l(2) =   0
                l(3) =   1
                l(4) =   1
                l(5) =   2
                l(6) =   3

     atomic species   valence    mass     pseudopotential
        O              6.00    15.99000     O ( 1.00)
        Ti            12.00    47.88000     Ti( 1.00)
        Ba            10.00   137.33000     Ba( 1.00)

      8 Sym. Ops. (no inversion) found

   Cartesian axes

     site n.     atom                  positions (alat units)
         1           Ba  tau(   1) = (   0.0000000   0.0000000   0.0000000  )
         2           Ti  tau(   2) = (   0.5100000   0.5000000   0.5000000  )
         3           O   tau(   3) = (   0.0000000   0.5000000   0.5000000  )
         4           O   tau(   4) = (   0.5000000   0.0000000   0.5000000  )
         5           O   tau(   5) = (   0.5000000   0.5000000   0.0000000  )

     number of k points=    18
                       cart. coord. in units 2pi/alat
        k(    1) = (   0.0833333   0.0833333   0.0833333), wk =   0.0740741
        k(    2) = (   0.0833333   0.0833333   0.2500000), wk =   0.1481481
        k(    3) = (   0.0833333   0.0833333   0.4166667), wk =   0.1481481
        k(    4) = (   0.0833333   0.2500000   0.2500000), wk =   0.0740741
        k(    5) = (   0.0833333   0.2500000   0.4166667), wk =   0.1481481
        k(    6) = (   0.0833333   0.4166667   0.4166667), wk =   0.0740741
        k(    7) = (   0.2500000   0.2500000   0.2500000), wk =   0.0740741
        k(    8) = (   0.2500000   0.2500000   0.4166667), wk =   0.1481481
        k(    9) = (   0.2500000   0.4166667   0.4166667), wk =   0.0740741
        k(   10) = (   0.4166667   0.4166667   0.4166667), wk =   0.0740741
        k(   11) = (   0.2500000  -0.0833333   0.0833333), wk =   0.0740741
        k(   12) = (   0.4166667  -0.0833333   0.0833333), wk =   0.0740741
        k(   13) = (   0.2500000  -0.2500000   0.0833333), wk =   0.1481481
        k(   14) = (   0.4166667  -0.2500000   0.0833333), wk =   0.1481481
        k(   15) = (   0.2500000   0.4166667   0.0833333), wk =   0.1481481
        k(   16) = (   0.4166667  -0.4166667   0.0833333), wk =   0.1481481
        k(   17) = (   0.4166667  -0.2500000   0.2500000), wk =   0.0740741
        k(   18) = (   0.4166667  -0.4166667   0.2500000), wk =   0.1481481

     Initial potential from superposition of free atoms

     starting charge   28.99996, renormalised to   40.00000
     Starting wfc are   22 randomized atomic wfcs +    2 random wfc

     Self-consistent Calculation

     iteration #  1     ecut=   100.00 Ry     beta=0.60
     Davidson diagonalization with overlap
     ethr =  1.00E-02,  avg # of iterations = 12.0

     total energy              =      56.16094923 Ry
     Harris-Foulkes estimate   =    -388.55439180 Ry
     estimated scf accuracy    <     586.82520634 Ry

[...]

          k = 0.0833 0.0833 0.0833     band energies (ev):

   -46.4129 -23.3313 -23.1165 -23.1152  -9.1604  -7.2025  -7.0538  -5.8434
     4.2394   4.2941   4.4818   7.2145   7.3199   7.4157   7.7287   7.8059
     8.0764   9.4197   9.9681  10.0482  11.2811  11.3409  11.3751  13.8671

[...]

     highest occupied, lowest unoccupied level (ev):    10.0482   11.2811

!    total energy              =    -264.45255558 Ry
     Harris-Foulkes estimate   =    -265.54933223 Ry
     estimated scf accuracy    <       1.59834356 Ry

     The total energy is the sum of the following terms:

     one-electron contribution =     -70.63008146 Ry
     hartree contribution      =      55.54303870 Ry
     xc contribution           =     -42.41954116 Ry
     ewald contribution        =    -211.89562325 Ry
     scf correction            =       4.94965158 Ry

[...]

     End of self-consistent calculation

          k = 0.0833 0.0833 0.0833 (  6850 PWs)   bands (ev):

[...]

     one-electron contribution =     -68.24388287 Ry
     hartree contribution      =      58.13942203 Ry
     xc contribution           =     -42.80599598 Ry
     ewald contribution        =    -211.89562325 Ry

     convergence has been achieved in  33 iterations

     Forces acting on atoms (cartesian axes, Ry/au):

     atom    1 type  3   force =     0.00599416    0.00000000    0.00000000
     atom    2 type  2   force =    -0.00319699    0.00000000    0.00000000
     atom    3 type  1   force =    -0.00387021    0.00000000    0.00000000
     atom    4 type  1   force =     0.00053652    0.00000000    0.00000000
     atom    5 type  1   force =     0.00053652    0.00000000    0.00000000

     Total force =     0.007855     Total SCF correction =     0.000001

     Computing stress (Cartesian axis) and pressure

          total   stress  (Ry/bohr**3)                   (kbar)     P=   29.73
   0.00021272   0.00000000   0.00000000         31.29      0.00      0.00
   0.00000000   0.00019680   0.00000000          0.00     28.95      0.00
   0.00000000   0.00000000   0.00019680          0.00      0.00     28.95

     BFGS Geometry Optimization

     number of scf cycles    =   1
     number of bfgs steps    =   0

     enthalpy new            =    -264.8060800668 Ry

     new trust radius        =       0.0214107704 bohr
     new conv_thr            =            1.0E-12 Ry

     new unit-cell volume =    411.39738 a.u.^3 (    60.96280 Ang^3 )
     density =      6.35149 g/cm^3

CELL_PARAMETERS (alat=  7.40000000)
   1.005318078   0.000000000   0.000000000
   0.000000000   1.004919876   0.000000000
   0.000000000   0.000000000   1.004919876

ATOMIC_POSITIONS (crystal)
Ba       0.000810022   0.000000000   0.000000000
Ti       0.509567975   0.500000000   0.500000000
O       -0.000523001   0.500000000   0.500000000
O        0.500072502   0.000000000   0.500000000
O        0.500072502   0.500000000   0.000000000

     Writing output data file bto.save
     NEW-OLD atomic charge density approx. for the potential

     negative rho (up, down):  1.478E-08 0.000E+00
     extrapolated charge   40.43517, renormalised to   40.00000

[...]

     iteration #  1     ecut=   100.00 Ry     beta=0.60
     Davidson diagonalization with overlap
     c_bands:  1 eigenvalues not converged
     ethr =  1.00E-06,  avg # of iterations = 11.4

[...]

     enthalpy old            =    -264.8060800668 Ry
     enthalpy new            =    -264.8067407599 Ry

     CASE: enthalpy_new < enthalpy_old

[...]

     Writing output data file bto.save
     NEW-OLD atomic charge density approx. for the potential
     extrapolated charge   39.99924, renormalised to   40.00000

[...]

     number of scf cycles    =  14
     number of bfgs steps    =  13

     enthalpy old            =    -264.8070622786 Ry
     enthalpy new            =    -264.8070682496 Ry

     CASE: enthalpy_new < enthalpy_old

     new trust radius        =       0.0040010880 bohr
     new conv_thr            =            1.0E-14 Ry

     new unit-cell volume =    412.83554 a.u.^3 (    61.17591 Ang^3 )
     density =      6.32936 g/cm^3

[...]

ATOMIC_POSITIONS (crystal)
Ba       0.008643291   0.000000000   0.000000000
Ti       0.519977493   0.500000000   0.500000000
O       -0.009925091   0.500000000   0.500000000
O        0.495652153   0.000000000   0.500000000
O        0.495652153   0.500000000   0.000000000

     Writing output data file bto.save
     NEW-OLD atomic charge density approx. for the potential
     extrapolated charge   39.99565, renormalised to   40.00000

[...]

     bfgs converged in  15 scf cycles and  14 bfgs steps
     (criteria: energy <  1.0E-04 Ry, force <  1.0E-03Ry/Bohr, cell <  5.0E-01kbar)

     End of BFGS Geometry Optimization

     Final enthalpy =    -264.8070725469 Ry
Begin final coordinates
     new unit-cell volume =    412.83554 a.u.^3 (    61.17591 Ang^3 )
     density =      6.32936 g/cm^3

CELL_PARAMETERS (alat=  7.40000000)
   1.012742108   0.000000000   0.000000000
   0.000000000   1.002978275   0.000000000
   0.000000000   0.000000000   1.002978275

ATOMIC_POSITIONS (crystal)
Ba       0.008643291   0.000000000   0.000000000
Ti       0.519977493   0.500000000   0.500000000
O       -0.009925091   0.500000000   0.500000000
O        0.495652153   0.000000000   0.500000000
O        0.495652153   0.500000000   0.000000000
End final coordinates

     A final scf calculation at the relaxed structure.
     The G-vectors are recalculated for the final unit cell
     Results may differ from those at the preceding step.

     Title:
     cubic BaTiO3 at 7.40 lattice parameter. xc=PZ

     bravais-lattice index     =            1
     lattice parameter (alat)  =       7.4000  a.u.
     unit-cell volume          =     412.8355 (a.u.)^3
     number of atoms/cell      =            5
     number of atomic types    =            3
     number of electrons       =        40.00
     number of Kohn-Sham states=           24
     kinetic-energy cutoff     =     100.0000  Ry
     charge density cutoff     =     800.0000  Ry
     convergence threshold     =      1.0E-14
     mixing beta               =       0.6000
     number of iterations used =            8  plain     mixing
     Exchange-correlation      = SLA-PZ-NOGX-NOGC ( 1  1  0  0 0 0)

     celldm(1)=   7.400000  celldm(2)=   0.000000  celldm(3)=   0.000000
     celldm(4)=   0.000000  celldm(5)=   0.000000  celldm(6)=   0.000000

     crystal axes: (cart. coord. in units of alat)
               a(1) = (   1.012742   0.000000   0.000000 )
               a(2) = (   0.000000   1.002978   0.000000 )
               a(3) = (   0.000000   0.000000   1.002978 )

     reciprocal axes: (cart. coord. in units 2 pi/alat)
               b(1) = (  0.987418  0.000000  0.000000 )
               b(2) = (  0.000000  0.997031  0.000000 )
               b(3) = (  0.000000  0.000000  0.997031 )

     PseudoPot. # 1 for O  read from file:
     ../../PSP_DIR/O.pz-van_ak.UPF
     MD5 check sum: d814fcb982dd9af4fc6452aae6bb9318
     Pseudo is Ultrasoft, Zval =  6.0
     Generated by new atomic code, or converted to UPF format
     Using radial grid of  737 points,  4 beta functions with:
                l(1) =   0
                l(2) =   0
                l(3) =   1
                l(4) =   1
     Q(r) pseudized with  8 coefficients,  rinner =    0.800   0.800   0.800

     PseudoPot. # 2 for Ti read from file:
     ../../PSP_DIR/Ti.pz-sp-van_ak.UPF
     MD5 check sum: 545d0e6e05332b8871a8093f427cb0ca
     Pseudo is Ultrasoft, Zval = 12.0
     Generated by new atomic code, or converted to UPF format
     Using radial grid of  851 points,  6 beta functions with:
                l(1) =   0
                l(2) =   0
                l(3) =   1
                l(4) =   1
                l(5) =   2
                l(6) =   2
     Q(r) pseudized with  8 coefficients,  rinner =    1.000   1.000   1.000
                                                       1.000   1.000

     PseudoPot. # 3 for Ba read from file:
     ../../PSP_DIR/Ba.pz-sp-hgh.UPF
     MD5 check sum: 155c4e4bbe33bd45901c985a874b3acf
     Pseudo is Norm-conserving, Zval = 10.0
     Generated in analytical, separable form
     Using radial grid of 1251 points,  6 beta functions with:
                l(1) =   0
                l(2) =   0
                l(3) =   1
                l(4) =   1
                l(5) =   2
                l(6) =   3

     atomic species   valence    mass     pseudopotential
        O              6.00    15.99000     O ( 1.00)
        Ti            12.00    47.88000     Ti( 1.00)
        Ba            10.00   137.33000     Ba( 1.00)

      8 Sym. Ops. (no inversion) found

   Cartesian axes

     site n.     atom                  positions (alat units)
         1           Ba  tau(   1) = (   0.0087534   0.0000000   0.0000000  )
         2           Ti  tau(   2) = (   0.5266031   0.5014891   0.5014891  )
         3           O   tau(   3) = (  -0.0100516   0.5014891   0.5014891  )
         4           O   tau(   4) = (   0.5019678   0.0000000   0.5014891  )
         5           O   tau(   5) = (   0.5019678   0.5014891   0.0000000  )

     number of k points=    18
                       cart. coord. in units 2pi/alat
        k(    1) = (   0.0822849   0.0830859   0.0830859), wk =   0.0740741
        k(    2) = (   0.0822849   0.0830859   0.2492576), wk =   0.1481481
        k(    3) = (   0.0822849   0.0830859   0.4154294), wk =   0.1481481
        k(    4) = (   0.0822849   0.2492576   0.2492576), wk =   0.0740741
        k(    5) = (   0.0822849   0.2492576   0.4154294), wk =   0.1481481
        k(    6) = (   0.0822849   0.4154294   0.4154294), wk =   0.0740741
        k(    7) = (   0.2468546   0.2492576   0.2492576), wk =   0.0740741
        k(    8) = (   0.2468546   0.2492576   0.4154294), wk =   0.1481481
        k(    9) = (   0.2468546   0.4154294   0.4154294), wk =   0.0740741
        k(   10) = (   0.4114243   0.4154294   0.4154294), wk =   0.0740741
        k(   11) = (   0.2468546  -0.0830859   0.0830859), wk =   0.0740741
        k(   12) = (   0.4114243  -0.0830859   0.0830859), wk =   0.0740741
        k(   13) = (   0.2468546  -0.2492576   0.0830859), wk =   0.1481481
        k(   14) = (   0.4114243  -0.2492576   0.0830859), wk =   0.1481481
        k(   15) = (   0.2468546   0.4154294   0.0830859), wk =   0.1481481
        k(   16) = (   0.4114243  -0.4154294   0.0830859), wk =   0.1481481
        k(   17) = (   0.4114243  -0.2492576   0.2492576), wk =   0.0740741
        k(   18) = (   0.4114243  -0.4154294   0.2492576), wk =   0.1481481

     Initial potential from superposition of free atoms

     starting charge   28.99996, renormalised to   40.00000
     Starting wfc are   22 randomized atomic wfcs +    2 random wfc

     Writing output data file bto.save

     Self-consistent Calculation

     iteration #  1     ecut=   100.00 Ry     beta=0.60
     Davidson diagonalization with overlap
     c_bands:  1 eigenvalues not converged
     c_bands:  2 eigenvalues not converged
     c_bands:  2 eigenvalues not converged
     c_bands:  2 eigenvalues not converged
     c_bands:  1 eigenvalues not converged
     c_bands:  2 eigenvalues not converged
     c_bands:  1 eigenvalues not converged
     c_bands:  2 eigenvalues not converged
     c_bands:  1 eigenvalues not converged
     c_bands:  1 eigenvalues not converged
     ethr =  1.00E-06,  avg # of iterations = 19.8

[...]

     negative rho (up, down):  1.930E-02 0.000E+00

[...]

     negative rho (up, down):  4.250E-01 0.000E+00

[...]

          k = 0.4114-0.4154 0.2493     band energies (ev):

[...]

     one-electron contribution =     -70.43348362 Ry
     hartree contribution      =      58.78705731 Ry
     xc contribution           =     -42.75058439 Ry
     ewald contribution        =    -210.40964633 Ry
     scf correction            =      -0.00054371 Ry

[...]

     total energy              =    -264.80720075 Ry
     Harris-Foulkes estimate   =    -264.80720075 Ry
     estimated scf accuracy    <          1.9E-14 Ry

     iteration # 38     ecut=   100.00 Ry     beta=0.60
     Davidson diagonalization with overlap
     ethr =  1.00E-13,  avg # of iterations =  1.0

     End of self-consistent calculation

[...]

          k = 0.4114-0.4154 0.2493 (  6977 PWs)   bands (ev):

   -44.9706 -21.6454 -21.6176 -21.5866 -13.7872  -5.4286  -5.1372  -5.0602
     0.4463   0.5136   0.8414   6.3915   6.8287   7.3519   7.6129   8.1609
     8.2644  10.0039  10.1360  10.4736  14.7050  14.7394  14.9392  17.4613

     highest occupied, lowest unoccupied level (ev):    10.5800   12.8422

!    total energy              =    -264.80720075 Ry
     Harris-Foulkes estimate   =    -264.80720075 Ry
     estimated scf accuracy    <          1.5E-15 Ry

     The total energy is the sum of the following terms:

     one-electron contribution =     -70.43403807 Ry
     hartree contribution      =      58.78703702 Ry
     xc contribution           =     -42.75055338 Ry
     ewald contribution        =    -210.40964633 Ry

     convergence has been achieved in  38 iterations

     Forces acting on atoms (cartesian axes, Ry/au):

     atom    1 type  3   force =    -0.00006153    0.00000000    0.00000000
     atom    2 type  2   force =    -0.00002943    0.00000000    0.00000000
     atom    3 type  1   force =    -0.00066904    0.00000000    0.00000000
     atom    4 type  1   force =     0.00038000    0.00000000    0.00000000
     atom    5 type  1   force =     0.00038000    0.00000000    0.00000000

     Total force =     0.000861     Total SCF correction =     0.000000

     Computing stress (Cartesian axis) and pressure

          total   stress  (Ry/bohr**3)                   (kbar)     P=    0.71
   0.00000512   0.00000000   0.00000000          0.75      0.00      0.00
   0.00000000   0.00000472   0.00000000          0.00      0.69      0.00
   0.00000000   0.00000000   0.00000472          0.00      0.00      0.69

     Writing output data file bto.save

     General routines

     Parallel routines

   This run was terminated on:  11:27:23   5Jan2018

   JOB DONE.