     Program PWSCF v.6.1 (svn rev. 13369) starts on  5Jan2018 at 14:10:24

     Current dimensions of program PWSCF are:
     Max number of different atomic species (ntypx) = 10
     Max number of k-points (npk) =  40000
     Max angular momentum in pseudopotentials (lmaxx) =  3

     Subspace diagonalization in iterative solution of the eigenvalue problem:
     a serial algorithm will be used

     Title:
     cubic BaTiO3 at 7.40 lattice parameter. xc=PZ

     bravais-lattice index     =            1
     lattice parameter (alat)  =       7.4000  a.u.
     unit-cell volume          =     405.2240 (a.u.)^3
     number of atoms/cell      =            5
     number of atomic types    =            3
     number of electrons       =        40.00
     number of Kohn-Sham states=           24
     kinetic-energy cutoff     =     100.0000  Ry
     charge density cutoff     =     800.0000  Ry
     convergence threshold     =      1.0E-12
     mixing beta               =       0.6000
     number of iterations used =            8  plain     mixing
     Exchange-correlation      = SLA-PZ-NOGX-NOGC ( 1  1  0  0 0 0)
     nstep                     =           50

     celldm(1)=   7.400000  celldm(2)=   0.000000  celldm(3)=   0.000000
     celldm(4)=   0.000000  celldm(5)=   0.000000  celldm(6)=   0.000000

     crystal axes: (cart. coord. in units of alat)
               a(1) = (   1.000000   0.000000   0.000000 )
               a(2) = (   0.000000   1.000000   0.000000 )
               a(3) = (   0.000000   0.000000   1.000000 )

     reciprocal axes: (cart. coord. in units 2 pi/alat)
               b(1) = (  1.000000  0.000000  0.000000 )
               b(2) = (  0.000000  1.000000  0.000000 )
               b(3) = (  0.000000  0.000000  1.000000 )

     PseudoPot. # 1 for O  read from file:
     ../../PSP_DIR/O.pz-van_ak.UPF
     MD5 check sum: d814fcb982dd9af4fc6452aae6bb9318
     Pseudo is Ultrasoft, Zval =  6.0
     Generated by new atomic code, or converted to UPF format
     Using radial grid of  737 points,  4 beta functions with:
                l(1) =   0
                l(2) =   0
                l(3) =   1
                l(4) =   1
     Q(r) pseudized with  8 coefficients,  rinner =    0.800   0.800   0.800

     PseudoPot. # 2 for Ti read from file:
     ../../PSP_DIR/Ti.pz-sp-van_ak.UPF
     MD5 check sum: 545d0e6e05332b8871a8093f427cb0ca
     Pseudo is Ultrasoft, Zval = 12.0
     Generated by new atomic code, or converted to UPF format
     Using radial grid of  851 points,  6 beta functions with:
                l(1) =   0
                l(2) =   0
                l(3) =   1
                l(4) =   1
                l(5) =   2
                l(6) =   2
     Q(r) pseudized with  8 coefficients,  rinner =    1.000   1.000   1.000
                                                       1.000   1.000

     PseudoPot. # 3 for Ba read from file:
     ../../PSP_DIR/Ba.pz-sp-hgh.UPF
     MD5 check sum: 155c4e4bbe33bd45901c985a874b3acf
     Pseudo is Norm-conserving, Zval = 10.0
     Generated in analytical, separable form
     Using radial grid of 1251 points,  6 beta functions with:
                l(1) =   0
                l(2) =   0
                l(3) =   1
                l(4) =   1
                l(5) =   2
                l(6) =   3

     atomic species   valence    mass     pseudopotential
        O              6.00    15.99000     O ( 1.00)
        Ti            12.00    47.88000     Ti( 1.00)
        Ba            10.00   137.33000     Ba( 1.00)

      8 Sym. Ops. (no inversion) found

   Cartesian axes

     site n.     atom                  positions (alat units)
         1           Ba  tau(   1) = (   0.0000000   0.0000000   0.0000000  )
         2           Ti  tau(   2) = (   0.5300000   0.5000000   0.5000000  )
         3           O   tau(   3) = (   0.0000000   0.5000000   0.5000000  )
         4           O   tau(   4) = (   0.5000000   0.0000000   0.5000000  )
         5           O   tau(   5) = (   0.5000000   0.5000000   0.0000000  )

     number of k points=    18
                       cart. coord. in units 2pi/alat
        k(    1) = (   0.0833333   0.0833333   0.0833333), wk =   0.0740741
        k(    2) = (   0.0833333   0.0833333   0.2500000), wk =   0.1481481
        k(    3) = (   0.0833333   0.0833333   0.4166667), wk =   0.1481481
        k(    4) = (   0.0833333   0.2500000   0.2500000), wk =   0.0740741
        k(    5) = (   0.0833333   0.2500000   0.4166667), wk =   0.1481481
        k(    6) = (   0.0833333   0.4166667   0.4166667), wk =   0.0740741
        k(    7) = (   0.2500000   0.2500000   0.2500000), wk =   0.0740741
        k(    8) = (   0.2500000   0.2500000   0.4166667), wk =   0.1481481
        k(    9) = (   0.2500000   0.4166667   0.4166667), wk =   0.0740741
        k(   10) = (   0.4166667   0.4166667   0.4166667), wk =   0.0740741
        k(   11) = (   0.2500000  -0.0833333   0.0833333), wk =   0.0740741
        k(   12) = (   0.4166667  -0.0833333   0.0833333), wk =   0.0740741
        k(   13) = (   0.2500000  -0.2500000   0.0833333), wk =   0.1481481
        k(   14) = (   0.4166667  -0.2500000   0.0833333), wk =   0.1481481
        k(   15) = (   0.2500000   0.4166667   0.0833333), wk =   0.1481481
        k(   16) = (   0.4166667  -0.4166667   0.0833333), wk =   0.1481481
        k(   17) = (   0.4166667  -0.2500000   0.2500000), wk =   0.0740741
        k(   18) = (   0.4166667  -0.4166667   0.2500000), wk =   0.1481481

     Initial potential from superposition of free atoms

     starting charge   28.99996, renormalised to   40.00000
     Starting wfc are   22 randomized atomic wfcs +    2 random wfc

     Self-consistent Calculation

     iteration #  1     ecut=   100.00 Ry     beta=0.60
     Davidson diagonalization with overlap
     ethr =  1.00E-02,  avg # of iterations = 12.0

     total energy              =      55.71784614 Ry
     Harris-Foulkes estimate   =    -388.49384812 Ry
     estimated scf accuracy    <     586.16550566 Ry

[...]

     negative rho (up, down):  2.967E-08 0.000E+00

[...]

          k = 0.0833 0.0833 0.0833     band energies (ev):

   -54.8302 -31.1944 -31.1933 -31.0670  -9.8855  -8.9005  -8.6545  -3.9187
     3.3099   3.3755   3.6469   4.1916   4.2353   4.5314   5.6164   5.8016
     6.5468   6.7153   7.0824   7.1957   7.6508   7.9024  10.5482  11.0196

[...]

     highest occupied, lowest unoccupied level (ev):     8.2326    7.6508

!    total energy              =    -267.88485378 Ry
     Harris-Foulkes estimate   =    -268.15595173 Ry
     estimated scf accuracy    <      33.14725110 Ry

     The total energy is the sum of the following terms:

     one-electron contribution =    -109.07777315 Ry
     hartree contribution      =      50.42105418 Ry
     xc contribution           =     -42.41961838 Ry
     ewald contribution        =    -211.74186573 Ry
     scf correction            =      44.93334929 Ry

[...]

     End of self-consistent calculation

          k = 0.0833 0.0833 0.0833 (  6850 PWs)   bands (ev):

[...]

     one-electron contribution =     -68.55822583 Ry
     hartree contribution      =      58.31547702 Ry
     xc contribution           =     -42.81993038 Ry
     ewald contribution        =    -211.74186573 Ry

     convergence has been achieved in  35 iterations

     Forces acting on atoms (cartesian axes, Ry/au):

     atom    1 type  3   force =     0.01806790    0.00000000    0.00000000
     atom    2 type  2   force =    -0.02125949    0.00000000    0.00000000
     atom    3 type  1   force =    -0.00242521    0.00000000    0.00000000
     atom    4 type  1   force =     0.00280840    0.00000000    0.00000000
     atom    5 type  1   force =     0.00280840    0.00000000    0.00000000

     Total force =     0.028286     Total SCF correction =     0.000000

     Computing stress (Cartesian axis) and pressure

          total   stress  (Ry/bohr**3)                   (kbar)     P=   37.71
   0.00035527   0.00000000   0.00000000         52.26      0.00      0.00
   0.00000000   0.00020688   0.00000000          0.00     30.43      0.00
   0.00000000   0.00000000   0.00020688          0.00      0.00     30.43

     BFGS Geometry Optimization

     number of scf cycles    =   1
     number of bfgs steps    =   0

     enthalpy new            =    -264.8045449308 Ry

     new trust radius        =       0.0357586185 bohr
     new conv_thr            =            1.0E-12 Ry

     new unit-cell volume =    413.06290 a.u.^3 (    61.20961 Ang^3 )
     density =      6.32588 g/cm^3

CELL_PARAMETERS (alat=  7.40000000)
   1.008881844   0.000000000   0.000000000
   0.000000000   1.005171949   0.000000000
   0.000000000   0.000000000   1.005171949

ATOMIC_POSITIONS (crystal)
Ba       0.002441608   0.000000000   0.000000000
Ti       0.527127096   0.500000000   0.500000000
O       -0.000327731   0.500000000   0.500000000
O        0.500379513   0.000000000   0.500000000
O        0.500379513   0.500000000   0.000000000

     Writing output data file bto.save
     NEW-OLD atomic charge density approx. for the potential
     extrapolated charge   40.55035, renormalised to   40.00000

[...]

     iteration #  1     ecut=   100.00 Ry     beta=0.60
     Davidson diagonalization with overlap
     c_bands:  1 eigenvalues not converged
     c_bands:  1 eigenvalues not converged
     c_bands:  1 eigenvalues not converged
     ethr =  1.00E-06,  avg # of iterations = 12.7

[...]

     enthalpy old            =    -264.8045449308 Ry
     enthalpy new            =    -264.8062161846 Ry

     CASE: enthalpy_new < enthalpy_old

[...]

     Threshold (ethr) on eigenvalues was too large:
     Diagonalizing with lowered threshold

     Davidson diagonalization with overlap
     ethr =  8.01E-08,  avg # of iterations =  3.0

[...]

     number of scf cycles    =  10
     number of bfgs steps    =   9

     enthalpy old            =    -264.8070642782 Ry
     enthalpy new            =    -264.8070665414 Ry

     CASE: enthalpy_new < enthalpy_old

     new trust radius        =       0.0033573818 bohr
     new conv_thr            =            1.0E-14 Ry

     new unit-cell volume =    412.75356 a.u.^3 (    61.16377 Ang^3 )
     density =      6.33062 g/cm^3

[...]

ATOMIC_POSITIONS (crystal)
Ba       0.012474818   0.000000000   0.000000000
Ti       0.523230059   0.500000000   0.500000000
O       -0.005481992   0.500000000   0.500000000
O        0.499888557   0.000000000   0.500000000
O        0.499888557   0.500000000   0.000000000

     Writing output data file bto.save
     NEW-OLD atomic charge density approx. for the potential
     extrapolated charge   40.00719, renormalised to   40.00000

[...]

     bfgs converged in  11 scf cycles and  10 bfgs steps
     (criteria: energy <  1.0E-04 Ry, force <  1.0E-03Ry/Bohr, cell <  5.0E-01kbar)

     End of BFGS Geometry Optimization

     Final enthalpy =    -264.8070696831 Ry
Begin final coordinates
     new unit-cell volume =    412.75356 a.u.^3 (    61.16377 Ang^3 )
     density =      6.33062 g/cm^3

CELL_PARAMETERS (alat=  7.40000000)
   1.011862676   0.000000000   0.000000000
   0.000000000   1.003314403   0.000000000
   0.000000000   0.000000000   1.003314403

ATOMIC_POSITIONS (crystal)
Ba       0.012474818   0.000000000   0.000000000
Ti       0.523230059   0.500000000   0.500000000
O       -0.005481992   0.500000000   0.500000000
O        0.499888557   0.000000000   0.500000000
O        0.499888557   0.500000000   0.000000000
End final coordinates

     A final scf calculation at the relaxed structure.
     The G-vectors are recalculated for the final unit cell
     Results may differ from those at the preceding step.

     Title:
     cubic BaTiO3 at 7.40 lattice parameter. xc=PZ

     bravais-lattice index     =            1
     lattice parameter (alat)  =       7.4000  a.u.
     unit-cell volume          =     412.7536 (a.u.)^3
     number of atoms/cell      =            5
     number of atomic types    =            3
     number of electrons       =        40.00
     number of Kohn-Sham states=           24
     kinetic-energy cutoff     =     100.0000  Ry
     charge density cutoff     =     800.0000  Ry
     convergence threshold     =      1.0E-14
     mixing beta               =       0.6000
     number of iterations used =            8  plain     mixing
     Exchange-correlation      = SLA-PZ-NOGX-NOGC ( 1  1  0  0 0 0)

     celldm(1)=   7.400000  celldm(2)=   0.000000  celldm(3)=   0.000000
     celldm(4)=   0.000000  celldm(5)=   0.000000  celldm(6)=   0.000000

     crystal axes: (cart. coord. in units of alat)
               a(1) = (   1.011863   0.000000   0.000000 )
               a(2) = (   0.000000   1.003314   0.000000 )
               a(3) = (   0.000000   0.000000   1.003314 )

     reciprocal axes: (cart. coord. in units 2 pi/alat)
               b(1) = (  0.988276  0.000000  0.000000 )
               b(2) = (  0.000000  0.996697  0.000000 )
               b(3) = (  0.000000  0.000000  0.996697 )

     PseudoPot. # 1 for O  read from file:
     ../../PSP_DIR/O.pz-van_ak.UPF
     MD5 check sum: d814fcb982dd9af4fc6452aae6bb9318
     Pseudo is Ultrasoft, Zval =  6.0
     Generated by new atomic code, or converted to UPF format
     Using radial grid of  737 points,  4 beta functions with:
                l(1) =   0
                l(2) =   0
                l(3) =   1
                l(4) =   1
     Q(r) pseudized with  8 coefficients,  rinner =    0.800   0.800   0.800

     PseudoPot. # 2 for Ti read from file:
     ../../PSP_DIR/Ti.pz-sp-van_ak.UPF
     MD5 check sum: 545d0e6e05332b8871a8093f427cb0ca
     Pseudo is Ultrasoft, Zval = 12.0
     Generated by new atomic code, or converted to UPF format
     Using radial grid of  851 points,  6 beta functions with:
                l(1) =   0
                l(2) =   0
                l(3) =   1
                l(4) =   1
                l(5) =   2
                l(6) =   2
     Q(r) pseudized with  8 coefficients,  rinner =    1.000   1.000   1.000
                                                       1.000   1.000

     PseudoPot. # 3 for Ba read from file:
     ../../PSP_DIR/Ba.pz-sp-hgh.UPF
     MD5 check sum: 155c4e4bbe33bd45901c985a874b3acf
     Pseudo is Norm-conserving, Zval = 10.0
     Generated in analytical, separable form
     Using radial grid of 1251 points,  6 beta functions with:
                l(1) =   0
                l(2) =   0
                l(3) =   1
                l(4) =   1
                l(5) =   2
                l(6) =   3

     atomic species   valence    mass     pseudopotential
        O              6.00    15.99000     O ( 1.00)
        Ti            12.00    47.88000     Ti( 1.00)
        Ba            10.00   137.33000     Ba( 1.00)

      8 Sym. Ops. (no inversion) found

   Cartesian axes

     site n.     atom                  positions (alat units)
         1           Ba  tau(   1) = (   0.0126228   0.0000000   0.0000000  )
         2           Ti  tau(   2) = (   0.5294370   0.5016572   0.5016572  )
         3           O   tau(   3) = (  -0.0055470   0.5016572   0.5016572  )
         4           O   tau(   4) = (   0.5058186   0.0000000   0.5016572  )
         5           O   tau(   5) = (   0.5058186   0.5016572   0.0000000  )

     number of k points=    18
                       cart. coord. in units 2pi/alat
        k(    1) = (   0.0823564   0.0830580   0.0830580), wk =   0.0740741
        k(    2) = (   0.0823564   0.0830580   0.2491741), wk =   0.1481481
        k(    3) = (   0.0823564   0.0830580   0.4152902), wk =   0.1481481
        k(    4) = (   0.0823564   0.2491741   0.2491741), wk =   0.0740741
        k(    5) = (   0.0823564   0.2491741   0.4152902), wk =   0.1481481
        k(    6) = (   0.0823564   0.4152902   0.4152902), wk =   0.0740741
        k(    7) = (   0.2470691   0.2491741   0.2491741), wk =   0.0740741
        k(    8) = (   0.2470691   0.2491741   0.4152902), wk =   0.1481481
        k(    9) = (   0.2470691   0.4152902   0.4152902), wk =   0.0740741
        k(   10) = (   0.4117818   0.4152902   0.4152902), wk =   0.0740741
        k(   11) = (   0.2470691  -0.0830580   0.0830580), wk =   0.0740741
        k(   12) = (   0.4117818  -0.0830580   0.0830580), wk =   0.0740741
        k(   13) = (   0.2470691  -0.2491741   0.0830580), wk =   0.1481481
        k(   14) = (   0.4117818  -0.2491741   0.0830580), wk =   0.1481481
        k(   15) = (   0.2470691   0.4152902   0.0830580), wk =   0.1481481
        k(   16) = (   0.4117818  -0.4152902   0.0830580), wk =   0.1481481
        k(   17) = (   0.4117818  -0.2491741   0.2491741), wk =   0.0740741
        k(   18) = (   0.4117818  -0.4152902   0.2491741), wk =   0.1481481

     Initial potential from superposition of free atoms

     starting charge   28.99996, renormalised to   40.00000
     Starting wfc are   22 randomized atomic wfcs +    2 random wfc

     Writing output data file bto.save

     Self-consistent Calculation

     iteration #  1     ecut=   100.00 Ry     beta=0.60
     Davidson diagonalization with overlap
     c_bands:  1 eigenvalues not converged
     c_bands:  2 eigenvalues not converged
     c_bands:  1 eigenvalues not converged
     c_bands:  2 eigenvalues not converged
     c_bands:  1 eigenvalues not converged
     c_bands:  2 eigenvalues not converged
     c_bands:  2 eigenvalues not converged
     c_bands:  2 eigenvalues not converged
     c_bands:  1 eigenvalues not converged
     ethr =  1.00E-06,  avg # of iterations = 19.8

[...]

          k = 0.4118-0.4153 0.2492     band energies (ev):

[...]

     one-electron contribution =     -70.38343525 Ry
     hartree contribution      =      58.76505417 Ry
     xc contribution           =     -42.75001007 Ry
     ewald contribution        =    -210.43873094 Ry
     scf correction            =      -0.00007301 Ry

[...]

     total energy              =    -264.80719509 Ry
     Harris-Foulkes estimate   =    -264.80719509 Ry
     estimated scf accuracy    <          1.2E-14 Ry

     iteration # 35     ecut=   100.00 Ry     beta=0.60
     Davidson diagonalization with overlap
     ethr =  1.00E-13,  avg # of iterations =  1.0

     negative rho (up, down):  1.156E-08 0.000E+00

     End of self-consistent calculation

[...]

          k = 0.4118-0.4153 0.2492 (  6976 PWs)   bands (ev):

   -44.9729 -21.6459 -21.6194 -21.5885 -13.7824  -5.4260  -5.1319  -5.0585
     0.4509   0.5157   0.8453   6.3920   6.8270   7.3538   7.6153   8.1640
     8.2663  10.0084  10.1375  10.4811  14.7065  14.7375  14.9401  17.4600

     highest occupied, lowest unoccupied level (ev):    10.5783   12.8390

!    total energy              =    -264.80719509 Ry
     Harris-Foulkes estimate   =    -264.80719509 Ry
     estimated scf accuracy    <          4.4E-15 Ry

     The total energy is the sum of the following terms:

     one-electron contribution =     -70.38350745 Ry
     hartree contribution      =      58.76505331 Ry
     xc contribution           =     -42.75001001 Ry
     ewald contribution        =    -210.43873094 Ry

     convergence has been achieved in  35 iterations

     Forces acting on atoms (cartesian axes, Ry/au):

     atom    1 type  3   force =    -0.00024358    0.00000000    0.00000000
     atom    2 type  2   force =     0.00036247    0.00000000    0.00000000
     atom    3 type  1   force =    -0.00073825    0.00000000    0.00000000
     atom    4 type  1   force =     0.00030968    0.00000000    0.00000000
     atom    5 type  1   force =     0.00030968    0.00000000    0.00000000

     Total force =     0.000963     Total SCF correction =     0.000000

     Computing stress (Cartesian axis) and pressure

          total   stress  (Ry/bohr**3)                   (kbar)     P=    0.39
   0.00000746   0.00000000   0.00000000          1.10      0.00      0.00
   0.00000000   0.00000024   0.00000000          0.00      0.04      0.00
   0.00000000   0.00000000   0.00000024          0.00      0.00      0.04

     Writing output data file bto.save

     General routines

     Parallel routines

   This run was terminated on:  14:12: 7   5Jan2018

   JOB DONE.