     Program PWSCF v.6.1 (svn rev. 13369) starts on  6Jan2018 at 18:21:11

     Current dimensions of program PWSCF are:
     Max number of different atomic species (ntypx) = 10
     Max number of k-points (npk) =  40000
     Max angular momentum in pseudopotentials (lmaxx) =  3
               file O.pbe-rrkjus.UPF: wavefunction(s)  2S renormalized

     Subspace diagonalization in iterative solution of the eigenvalue problem:
     a serial algorithm will be used

     Title:
     cubic BaTiO3 scf xc=PBE

     bravais-lattice index     =            0
     lattice parameter (alat)  =       7.4000  a.u.
     unit-cell volume          =     433.3637 (a.u.)^3
     number of atoms/cell      =            5
     number of atomic types    =            3
     number of electrons       =        40.00
     number of Kohn-Sham states=           24
     kinetic-energy cutoff     =     100.0000  Ry
     charge density cutoff     =     800.0000  Ry
     convergence threshold     =      1.0E-12
     mixing beta               =       0.6000
     number of iterations used =            8  plain     mixing
     Exchange-correlation      =  SLA  PW   PBE  PBE ( 1  4  3  4 0 0)

     celldm(1)=   7.400000  celldm(2)=   0.000000  celldm(3)=   0.000000
     celldm(4)=   0.000000  celldm(5)=   0.000000  celldm(6)=   0.000000

     crystal axes: (cart. coord. in units of alat)
               a(1) = (   1.045488   0.000000   0.000000 )
               a(2) = (   0.000000   1.011391   0.000000 )
               a(3) = (   0.000000   0.000000   1.011391 )

     reciprocal axes: (cart. coord. in units 2 pi/alat)
               b(1) = (  0.956491  0.000000  0.000000 )
               b(2) = (  0.000000  0.988737  0.000000 )
               b(3) = (  0.000000  0.000000  0.988737 )

     PseudoPot. # 1 for O  read from file:
     ../../PSP_DIR/O.pbe-rrkjus.UPF
     MD5 check sum: 390ba29e75625707450f3bd3f0eb6be9
     Pseudo is Ultrasoft, Zval =  6.0
     Generated by new atomic code, or converted to UPF format
     Using radial grid of 1269 points,  4 beta functions with:
                l(1) =   0
                l(2) =   0
                l(3) =   1
                l(4) =   1
     Q(r) pseudized with 0 coefficients

     PseudoPot. # 2 for Ti read from file:
     ../../PSP_DIR/Ti.pbe-sp-van_ak.UPF
     MD5 check sum: 8e4df49b7f0d34bbd5052bf3f5ea0213
     Pseudo is Ultrasoft, Zval = 12.0
     Generated by new atomic code, or converted to UPF format
     Using radial grid of  851 points,  6 beta functions with:
                l(1) =   0
                l(2) =   0
                l(3) =   1
                l(4) =   1
                l(5) =   2
                l(6) =   2
     Q(r) pseudized with  8 coefficients,  rinner =    1.000   1.000   1.000
                                                       1.000   1.000

     PseudoPot. # 3 for Ba read from file:
     ../../PSP_DIR/Ba.pbe-nsp-van.UPF
     MD5 check sum: a011de417d3466d8e94df216395bc359
     Pseudo is Ultrasoft + core correction, Zval = 10.0
     Generated by new atomic code, or converted to UPF format
     Using radial grid of  907 points,  6 beta functions with:
                l(1) =   0
                l(2) =   0
                l(3) =   1
                l(4) =   1
                l(5) =   2
                l(6) =   2
     Q(r) pseudized with  6 coefficients,  rinner =    1.200   1.200   1.200
                                                       1.200   1.200

     atomic species   valence    mass     pseudopotential
        O              6.00    15.99000     O ( 1.00)
        Ti            12.00    47.88000     Ti( 1.00)
        Ba            10.00   137.33000     Ba( 1.00)

      8 Sym. Ops. (no inversion) found

   Cartesian axes

     site n.     atom                  positions (alat units)
         1           Ba  tau(   1) = (  -0.0243650   0.0000000   0.0000000  )
         2           Ti  tau(   2) = (   0.4894495   0.5056957   0.5056957  )
         3           O   tau(   3) = (   0.0228482   0.5056957   0.5056957  )
         4           O   tau(   4) = (   0.5349219   0.0000000   0.5056957  )
         5           O   tau(   5) = (   0.5349219   0.5056957   0.0000000  )

     number of k points=    18
                       cart. coord. in units 2pi/alat
        k(    1) = (   0.0797076   0.0823947   0.0823947), wk =   0.0740741
        k(    2) = (   0.0797076   0.0823947   0.2471842), wk =   0.1481481
        k(    3) = (   0.0797076   0.0823947   0.4119737), wk =   0.1481481
        k(    4) = (   0.0797076   0.2471842   0.2471842), wk =   0.0740741
        k(    5) = (   0.0797076   0.2471842   0.4119737), wk =   0.1481481
        k(    6) = (   0.0797076   0.4119737   0.4119737), wk =   0.0740741
        k(    7) = (   0.2391229   0.0823947   0.0823947), wk =   0.0740741
        k(    8) = (   0.2391229   0.0823947   0.2471842), wk =   0.1481481
        k(    9) = (   0.2391229   0.0823947   0.4119737), wk =   0.1481481
        k(   10) = (   0.2391229   0.2471842   0.2471842), wk =   0.0740741
        k(   11) = (   0.2391229   0.2471842   0.4119737), wk =   0.1481481
        k(   12) = (   0.2391229   0.4119737   0.4119737), wk =   0.0740741
        k(   13) = (   0.3985381   0.0823947   0.0823947), wk =   0.0740741
        k(   14) = (   0.3985381   0.0823947   0.2471842), wk =   0.1481481
        k(   15) = (   0.3985381   0.0823947   0.4119737), wk =   0.1481481
        k(   16) = (   0.3985381   0.2471842   0.2471842), wk =   0.0740741
        k(   17) = (   0.3985381   0.2471842   0.4119737), wk =   0.1481481
        k(   18) = (   0.3985381   0.4119737   0.4119737), wk =   0.0740741

     Initial potential from superposition of free atoms

     starting charge   38.98495, renormalised to   40.00000
     Starting wfc are   35 randomized atomic wfcs

     Self-consistent Calculation

     iteration #  1     ecut=   100.00 Ry     beta=0.60
     Davidson diagonalization with overlap
     ethr =  1.00E-02,  avg # of iterations =  2.3

     total energy              =    -302.92027201 Ry
     Harris-Foulkes estimate   =    -303.47789730 Ry
     estimated scf accuracy    <       0.78256221 Ry

[...]

     total energy              =    -303.31969968 Ry
     Harris-Foulkes estimate   =    -303.31969968 Ry
     estimated scf accuracy    <          2.8E-12 Ry

     iteration # 14     ecut=   100.00 Ry     beta=0.60
     Davidson diagonalization with overlap
     ethr =  1.00E-13,  avg # of iterations =  1.2

     End of self-consistent calculation

          k = 0.0797 0.0824 0.0824 (  7301 PWs)   bands (ev):

   -46.1305 -22.4600 -22.3681 -22.3679 -14.3281  -6.5651  -5.9559  -5.8551
     0.4593   0.4787   0.5923   7.6581   7.8097   7.8516   8.4818   8.5037
     8.9488   9.3094   9.7549   9.8226  12.4948  12.8228  12.8399  14.8903

[...]

          k = 0.3985 0.4120 0.4120 (  7317 PWs)   bands (ev):

   -46.1278 -22.4891 -22.4138 -22.4137 -14.0962  -5.8939  -5.7140  -5.6588
    -0.1925  -0.1490   0.0248   5.9375   6.5793   6.6502   7.6224   7.8553
     7.8934   9.8265   9.8718  10.1381  14.4053  14.4082  14.4890  16.8700

     highest occupied, lowest unoccupied level (ev):    10.1889   12.4948

!    total energy              =    -303.31969968 Ry
     Harris-Foulkes estimate   =    -303.31969968 Ry
     estimated scf accuracy    <          8.4E-14 Ry

     The total energy is the sum of the following terms:

     one-electron contribution =     -72.92390658 Ry
     hartree contribution      =      60.34893862 Ry
     xc contribution           =     -84.18217436 Ry
     ewald contribution        =    -206.56255736 Ry

     convergence has been achieved in  14 iterations

     Forces acting on atoms (cartesian axes, Ry/au):

     atom    1 type  3   force =     0.00030550    0.00000000    0.00000000
     atom    2 type  2   force =    -0.00035962    0.00000000    0.00000000
     atom    3 type  1   force =     0.00004718    0.00000000    0.00000000
     atom    4 type  1   force =     0.00000347    0.00000000    0.00000000
     atom    5 type  1   force =     0.00000347    0.00000000    0.00000000

     Total force =     0.000474     Total SCF correction =     0.000000

     Computing stress (Cartesian axis) and pressure

          total   stress  (Ry/bohr**3)                   (kbar)     P=   -0.35
  -0.00000382   0.00000000   0.00000000         -0.56      0.00      0.00
   0.00000000  -0.00000163   0.00000000          0.00     -0.24      0.00
   0.00000000   0.00000000  -0.00000163          0.00      0.00     -0.24

     Writing output data file bto.save

     General routines

     Parallel routines

   This run was terminated on:  18:21:21   6Jan2018

   JOB DONE.