     Program PHONON v.6.1 (svn rev. 13369) starts on  8Jan2018 at 11:24:46

     Reading data from directory:
     ./bto.save

   Info: using nr1, nr2, nr3 values from input

[...]

     IMPORTANT: XC functional enforced from input :
     Exchange-correlation      =  SLA  PW   PBE  PBE ( 1  4  3  4 0 0)
     Any further DFT definition will be discarded
     Please, verify this is what you really want

               file O.pbe-rrkjus.UPF: wavefunction(s)  2S renormalized

     Dynamical matrices for ( 4, 4, 4)  uniform grid of q-points
     (  18q-points):
       N         xq(1)         xq(2)         xq(3)
       1   0.000000000   0.000000000   0.000000000
       2   0.000000000   0.000000000   0.247184234
       3   0.000000000   0.000000000  -0.494368469
       4   0.000000000   0.247184234   0.247184234
       5   0.000000000   0.247184234  -0.494368469
       6   0.000000000  -0.494368469  -0.494368469
       7   0.239122868   0.000000000   0.000000000
       8   0.239122868   0.000000000   0.247184234
       9   0.239122868   0.000000000  -0.494368469
      10   0.239122868   0.247184234   0.247184234
      11   0.239122868   0.247184234  -0.494368469
      12   0.239122868  -0.494368469  -0.494368469
      13  -0.478245736   0.000000000   0.000000000
      14  -0.478245736   0.000000000   0.247184234
      15  -0.478245736   0.000000000  -0.494368469
      16  -0.478245736   0.247184234   0.247184234
      17  -0.478245736   0.247184234  -0.494368469
      18  -0.478245736  -0.494368469  -0.494368469

     Calculation of q =    0.0000000   0.0000000   0.0000000

     bravais-lattice index     =            0
     lattice parameter (alat)  =       7.4000  a.u.
     unit-cell volume          =     433.3637 (a.u.)^3
     number of atoms/cell      =            5
     number of atomic types    =            3
     kinetic-energy cut-off    =     100.0000  Ry
     charge density cut-off    =     800.0000  Ry
     convergence threshold     =      1.0E-12
     beta                      =       0.7000
     number of iterations used =            4
     Exchange-correlation      =  SLA  PW   PBE  PBE ( 1  4  3  4 0 0)

     celldm(1)=    7.40000  celldm(2)=    0.00000  celldm(3)=    0.00000
     celldm(4)=    0.00000  celldm(5)=    0.00000  celldm(6)=    0.00000

     crystal axes: (cart. coord. in units of alat)
               a(1) = (  1.0455  0.0000  0.0000 )
               a(2) = (  0.0000  1.0114  0.0000 )
               a(3) = (  0.0000  0.0000  1.0114 )

     reciprocal axes: (cart. coord. in units 2 pi/alat)
               b(1) = (  0.9565  0.0000  0.0000 )
               b(2) = (  0.0000  0.9887  0.0000 )
               b(3) = (  0.0000  0.0000  0.9887 )

     Atoms inside the unit cell:

     Cartesian axes

     site n.  atom      mass           positions (alat units)
        1     Ba 137.3300   tau(    1) = (   -0.02436    0.00000    0.00000  )
        2     Ti  47.8800   tau(    2) = (    0.48945    0.50570    0.50570  )
        3     O   15.9900   tau(    3) = (    0.02285    0.50570    0.50570  )
        4     O   15.9900   tau(    4) = (    0.53492    0.00000    0.50570  )
        5     O   15.9900   tau(    5) = (    0.53492    0.50570    0.00000  )

     Computing dynamical matrix for
                    q = (   0.0000000   0.0000000   0.0000000 )

      9 Sym.Ops. (with q -> -q+G )

     G cutoff = 1109.6696  (   5915 G-vectors)     FFT grid: ( 72, 72, 72)
     G cutoff =  554.8348  (   2092 G-vectors)  smooth grid: ( 50, 48, 48)
     number of k points=    18

     PseudoPot. # 1 for O  read from file:
     ../../PSP_DIR/O.pbe-rrkjus.UPF
     MD5 check sum: 390ba29e75625707450f3bd3f0eb6be9
     Pseudo is Ultrasoft, Zval =  6.0
     Generated by new atomic code, or converted to UPF format
     Using radial grid of 1269 points,  4 beta functions with:
                l(1) =   0
                l(2) =   0
                l(3) =   1
                l(4) =   1
     Q(r) pseudized with 0 coefficients

     PseudoPot. # 2 for Ti read from file:
     ../../PSP_DIR/Ti.pbe-sp-van_ak.UPF
     MD5 check sum: 8e4df49b7f0d34bbd5052bf3f5ea0213
     Pseudo is Ultrasoft, Zval = 12.0
     Generated by new atomic code, or converted to UPF format
     Using radial grid of  851 points,  6 beta functions with:
                l(1) =   0
                l(2) =   0
                l(3) =   1
                l(4) =   1
                l(5) =   2
                l(6) =   2
     Q(r) pseudized with  8 coefficients,  rinner =    1.000   1.000   1.000
                                                       1.000   1.000

     PseudoPot. # 3 for Ba read from file:
     ../../PSP_DIR/Ba.pbe-nsp-van.UPF
     MD5 check sum: a011de417d3466d8e94df216395bc359
     Pseudo is Ultrasoft + core correction, Zval = 10.0
     Generated by new atomic code, or converted to UPF format
     Using radial grid of  907 points,  6 beta functions with:
                l(1) =   0
                l(2) =   0
                l(3) =   1
                l(4) =   1
                l(5) =   2
                l(6) =   2
     Q(r) pseudized with  6 coefficients,  rinner =    1.200   1.200   1.200
                                                       1.200   1.200

     Mode symmetry, C_4v (4mm)  point group:

     Electric field:
     Dielectric constant
     Born effective charges in two ways

     Atomic displacements:
     There are  10 irreducible representations

     Representation     1      1 modes -A_1  G_1 D_1  To be done

[...]

     Representation     6      2 modes -E    G_5 D_5  To be done

[...]

     Alpha used in Ewald sum =   2.8000

     Electric Fields Calculation

      thresh= 1.000E-02 alpha_mix =  0.700 |ddv_scf|^2 =  3.503E-08

[...]

     End of electric fields calculation

          Dielectric constant in cartesian axis

          (       5.371325427       0.000000000       0.000000000 )
          (      -0.000000000       6.188687822      -0.000000000 )
          (       0.000000000      -0.000000000       6.188687822 )

          Effective charges (d Force / dE) in cartesian axis

           atom      1   Ba
      Ex  (        2.90285       -0.00000       -0.00000 )
      Ey  (        0.00000        2.64170        0.00000 )
      Ez  (        0.00000        0.00000        2.64170 )
           atom      2   Ti
      Ex  (        5.41798       -0.00000        0.00000 )
      Ey  (       -0.00000        6.91526       -0.00000 )
      Ez  (        0.00000       -0.00000        6.91526 )
           atom      3   O
      Ex  (       -4.39305       -0.00000        0.00000 )
      Ey  (       -0.00000       -1.99091        0.00000 )
      Ez  (        0.00000        0.00000       -1.99091 )
           atom      4   O
      Ex  (       -1.93948        0.00000        0.00000 )
      Ey  (       -0.00000       -5.52865       -0.00000 )
      Ez  (        0.00000        0.00000       -2.13630 )
           atom      5   O
      Ex  (       -1.93948        0.00000        0.00000 )
      Ey  (        0.00000       -2.13630        0.00000 )
      Ez  (        0.00000       -0.00000       -5.52865 )

     Representation #  1 mode #   1

     Self-consistent Calculation

[...]

     End of self-consistent calculation

     Convergence has been achieved

[...]

     Representation #  6 modes #   6  7

[...]

     Number of q in the star =    1
     List of q in the star:
          1   0.000000000   0.000000000   0.000000000

          Dielectric constant in cartesian axis

          (       5.371325427       0.000000000       0.000000000 )
          (      -0.000000000       6.188687822      -0.000000000 )
          (       0.000000000      -0.000000000       6.188687822 )

          Effective charges (d Force / dE) in cartesian axis

[...]

          Effective charges (d P / du) in cartesian axis

           atom      1   Ba
      Px  (        2.89557        0.00000        0.00000 )
      Py  (        0.00000        2.75293       -0.00000 )
      Pz  (        0.00000       -0.00000        2.75293 )
           atom      2   Ti
      Px  (        5.38372       -0.00000        0.00000 )
      Py  (        0.00000        6.89546        0.00000 )
      Pz  (        0.00000        0.00000        6.89546 )
           atom      3   O
      Px  (       -4.39264       -0.00000        0.00000 )
      Py  (        0.00000       -1.99415       -0.00000 )
      Pz  (        0.00000       -0.00000       -1.99415 )
           atom      4   O
      Px  (       -1.94030        0.00000        0.00000 )
      Py  (        0.00000       -5.52913       -0.00000 )
      Pz  (        0.00000        0.00000       -2.13803 )
           atom      5   O
      Px  (       -1.94030       -0.00000        0.00000 )
      Py  (        0.00000       -2.13803        0.00000 )
      Pz  (        0.00000       -0.00000       -5.52913 )

     Diagonalizing the dynamical matrix

     q = (    0.000000000   0.000000000   0.000000000 )

     freq (    1) =      -3.048251 [THz] =    -101.678713 [cm-1]
     freq (    2) =      -3.048251 [THz] =    -101.678713 [cm-1]
     freq (    3) =       0.418184 [THz] =      13.949119 [cm-1]
     freq (    4) =       3.236949 [THz] =     107.972997 [cm-1]
     freq (    5) =       3.236949 [THz] =     107.972997 [cm-1]
     freq (    6) =       3.920238 [THz] =     130.765077 [cm-1]
     freq (    7) =       3.945451 [THz] =     131.606080 [cm-1]
     freq (    8) =       3.945451 [THz] =     131.606080 [cm-1]
     freq (    9) =       7.884556 [THz] =     263.000480 [cm-1]
     freq (   10) =       8.521828 [THz] =     284.257586 [cm-1]
     freq (   11) =       8.521828 [THz] =     284.257586 [cm-1]
     freq (   12) =      10.150280 [THz] =     338.576901 [cm-1]
     freq (   13) =      14.227667 [THz] =     474.583891 [cm-1]
     freq (   14) =      14.227667 [THz] =     474.583891 [cm-1]
     freq (   15) =      16.130272 [THz] =     538.047962 [cm-1]

[...]

     freq (  1 -  2) =       -101.7  [cm-1]   --> E    G_5 D_5    I+R
     freq (  3 -  3) =         13.9  [cm-1]   --> A_1  G_1 D_1    I+R
     freq (  4 -  5) =        108.0  [cm-1]   --> E    G_5 D_5    I+R
     freq (  6 -  6) =        130.8  [cm-1]   --> A_1  G_1 D_1    I+R
     freq (  7 -  8) =        131.6  [cm-1]   --> E    G_5 D_5    I+R
     freq (  9 -  9) =        263.0  [cm-1]   --> B_1  G_3 D_2    R
     freq ( 10 - 11) =        284.3  [cm-1]   --> E    G_5 D_5    I+R
     freq ( 12 - 12) =        338.6  [cm-1]   --> A_1  G_1 D_1    I+R
     freq ( 13 - 14) =        474.6  [cm-1]   --> E    G_5 D_5    I+R
     freq ( 15 - 15) =        538.0  [cm-1]   --> A_1  G_1 D_1    I+R

[...]

     bravais-lattice index     =            0
     lattice parameter (alat)  =       7.4000  a.u.
     unit-cell volume          =     433.3637 (a.u.)^3
     number of atoms/cell      =            5
     number of atomic types    =            3
     number of electrons       =        40.00
     number of Kohn-Sham states=           24
     kinetic-energy cutoff     =     100.0000  Ry
     charge density cutoff     =     800.0000  Ry
     Exchange-correlation      =  SLA  PW   PBE  PBE ( 1  4  3  4 0 0)

[...]

     atomic species   valence    mass     pseudopotential
[...]
     freq ( 15 - 15) =        740.7  [cm-1]   --> A''

[...]

     Number of q in the star =    1
     List of q in the star:
          1   0.239122868  -0.494368469  -0.494368469
     In addition there is the -q list:
          1  -0.239122868   0.494368469   0.494368469

[...]

     freq (  1 -  1) =         95.5  [cm-1]   --> A_1  G_1 D_1
     freq (  2 -  3) =        103.8  [cm-1]   --> E    G_5 D_5
     freq (  4 -  4) =        163.8  [cm-1]   --> B_1  G_3 D_2
     freq (  5 -  6) =        185.8  [cm-1]   --> E    G_5 D_5
     freq (  7 -  7) =        237.1  [cm-1]   --> B_2  G_4 D_2'
     freq (  8 -  9) =        351.9  [cm-1]   --> E    G_5 D_5
     freq ( 10 - 10) =        398.0  [cm-1]   --> A_2  G_2 D_1'
     freq ( 11 - 12) =        419.4  [cm-1]   --> E    G_5 D_5
     freq ( 13 - 13) =        443.4  [cm-1]   --> A_1  G_1 D_1
     freq ( 14 - 14) =        547.3  [cm-1]   --> B_2  G_4 D_2'
     freq ( 15 - 15) =        746.1  [cm-1]   --> B_2  G_4 D_2'

[...]

     freq (  1 -  2) =         43.2  [cm-1]   --> E    G_5 D_5
     freq (  3 -  4) =         89.0  [cm-1]   --> E    G_5 D_5
     freq (  5 -  5) =        135.7  [cm-1]   --> A_1  G_1 D_1
     freq (  6 -  7) =        184.1  [cm-1]   --> E    G_5 D_5
     freq (  8 -  8) =        206.0  [cm-1]   --> A_1  G_1 D_1
     freq (  9 -  9) =        290.1  [cm-1]   --> B_1  G_3 D_2
     freq ( 10 - 11) =        308.3  [cm-1]   --> E    G_5 D_5
     freq ( 12 - 13) =        448.0  [cm-1]   --> E    G_5 D_5
     freq ( 14 - 14) =        476.2  [cm-1]   --> A_1  G_1 D_1
     freq ( 15 - 15) =        749.6  [cm-1]   --> A_1  G_1 D_1

[...]

     freq (  1 -  1) =         42.7  [cm-1]   --> A''
     freq (  2 -  2) =         86.8  [cm-1]   --> A'
     freq (  3 -  3) =         90.0  [cm-1]   --> A'
     freq (  4 -  4) =         91.2  [cm-1]   --> A''
     freq (  5 -  5) =        185.8  [cm-1]   --> A'
     freq (  6 -  6) =        223.1  [cm-1]   --> A'
     freq (  7 -  7) =        249.0  [cm-1]   --> A'
     freq (  8 -  8) =        250.7  [cm-1]   --> A''
     freq (  9 -  9) =        317.5  [cm-1]   --> A''
     freq ( 10 - 10) =        327.3  [cm-1]   --> A'
     freq ( 11 - 11) =        365.4  [cm-1]   --> A'
     freq ( 12 - 12) =        424.3  [cm-1]   --> A''
     freq ( 13 - 13) =        432.9  [cm-1]   --> A'
     freq ( 14 - 14) =        537.7  [cm-1]   --> A'
     freq ( 15 - 15) =        751.7  [cm-1]   --> A'

[...]

     Mode symmetry, C_2v (mm2)  point group:

     freq (  1 -  1) =         71.2  [cm-1]   --> A_2  D_2  S_2
     freq (  2 -  2) =         85.3  [cm-1]   --> A_1  D_1  S_1
     freq (  3 -  3) =         88.2  [cm-1]   --> B_2  D_4  S_4
     freq (  4 -  4) =         88.6  [cm-1]   --> B_1  D_3  S_3
     freq (  5 -  5) =        161.5  [cm-1]   --> A_1  D_1  S_1
     freq (  6 -  6) =        213.8  [cm-1]   --> B_1  D_3  S_3
     freq (  7 -  7) =        269.0  [cm-1]   --> A_1  D_1  S_1
     freq (  8 -  8) =        320.9  [cm-1]   --> A_2  D_2  S_2
     freq (  9 -  9) =        339.0  [cm-1]   --> B_2  D_4  S_4
     freq ( 10 - 10) =        342.3  [cm-1]   --> B_1  D_3  S_3
     freq ( 11 - 11) =        374.3  [cm-1]   --> A_2  D_2  S_2
     freq ( 12 - 12) =        433.6  [cm-1]   --> A_1  D_1  S_1
     freq ( 13 - 13) =        454.2  [cm-1]   --> A_1  D_1  S_1
     freq ( 14 - 14) =        554.0  [cm-1]   --> B_1  D_3  S_3
     freq ( 15 - 15) =        748.4  [cm-1]   --> B_1  D_3  S_3

[...]

     freq (  1 -  1) =         85.8  [cm-1]   --> A'
     freq (  2 -  2) =         87.3  [cm-1]   --> A'
     freq (  3 -  3) =        101.7  [cm-1]   --> A''
     freq (  4 -  4) =        182.2  [cm-1]   --> A''
     freq (  5 -  5) =        183.2  [cm-1]   --> A'
     freq (  6 -  6) =        213.4  [cm-1]   --> A''
     freq (  7 -  7) =        258.7  [cm-1]   --> A''
     freq (  8 -  8) =        274.2  [cm-1]   --> A'
     freq (  9 -  9) =        292.2  [cm-1]   --> A'
     freq ( 10 - 10) =        373.3  [cm-1]   --> A''
     freq ( 11 - 11) =        391.4  [cm-1]   --> A'
     freq ( 12 - 12) =        423.8  [cm-1]   --> A'
     freq ( 13 - 13) =        423.8  [cm-1]   --> A''
     freq ( 14 - 14) =        557.9  [cm-1]   --> A'
     freq ( 15 - 15) =        762.4  [cm-1]   --> A'

[...]

     number of k points=   216

     Number of k-points >= 100: set verbosity='high' to print them.

[...]

     Number of k-points >= 100: set verbosity='high' to print the bands.

[...]

      2 Sym.Ops. (no q -> -q+G )

[...]

     Representation     7      1 modes -A'  To be done

[...]

     Representation    15      1 modes -A''  To be done

[...]

     Mode symmetry, C_s (m)     point group:

     freq (  1 -  1) =         97.1  [cm-1]   --> A'
     freq (  2 -  2) =        100.9  [cm-1]   --> A'
     freq (  3 -  3) =        103.4  [cm-1]   --> A''
     freq (  4 -  4) =        150.2  [cm-1]   --> A'
     freq (  5 -  5) =        187.0  [cm-1]   --> A''
     freq (  6 -  6) =        208.8  [cm-1]   --> A'
     freq (  7 -  7) =        262.8  [cm-1]   --> A''
     freq (  8 -  8) =        273.4  [cm-1]   --> A''
     freq (  9 -  9) =        377.9  [cm-1]   --> A'
     freq ( 10 - 10) =        379.8  [cm-1]   --> A''
     freq ( 11 - 11) =        399.6  [cm-1]   --> A''
     freq ( 12 - 12) =        418.0  [cm-1]   --> A'
     freq ( 13 - 13) =        439.3  [cm-1]   --> A'
     freq ( 14 - 14) =        567.7  [cm-1]   --> A''
     freq ( 15 - 15) =        763.4  [cm-1]   --> A''

     Calculation of q =   -0.4782457  -0.4943685  -0.4943685

[...]

   Info: using nr1, nr2, nr3 values from input

     bravais-lattice index     =            0
     lattice parameter (alat)  =       7.4000  a.u.
     unit-cell volume          =     433.3637 (a.u.)^3
     number of atoms/cell      =            5
     number of atomic types    =            3
     number of electrons       =        40.00
     number of Kohn-Sham states=           24
     kinetic-energy cutoff     =     100.0000  Ry
     charge density cutoff     =     800.0000  Ry
     Exchange-correlation      =  SLA  PW   PBE  PBE ( 1  4  3  4 0 0)

[...]

     atomic species   valence    mass     pseudopotential
        O              6.00    15.99000     O ( 1.00)
        Ti            12.00    47.88000     Ti( 1.00)
        Ba            10.00   137.33000     Ba( 1.00)

      8 Sym. Ops. (no inversion) found

[...]

     site n.     atom                  positions (alat units)
         1           Ba  tau(   1) = (  -0.0243650   0.0000000   0.0000000  )
         2           Ti  tau(   2) = (   0.4894495   0.5056957   0.5056957  )
         3           O   tau(   3) = (   0.0228482   0.5056957   0.5056957  )
         4           O   tau(   4) = (   0.5349219   0.0000000   0.5056957  )
         5           O   tau(   5) = (   0.5349219   0.5056957   0.0000000  )

     number of k points=    36
                       cart. coord. in units 2pi/alat
        k(    1) = (   0.0797076   0.0823947   0.0823947), wk =   0.0740741
        k(    2) = (  -0.3985381  -0.4119737  -0.4119737), wk =   0.0000000
        k(    3) = (   0.0797076   0.0823947   0.2471842), wk =   0.1481481
        k(    4) = (  -0.3985381  -0.4119737  -0.2471842), wk =   0.0000000
        k(    5) = (   0.0797076   0.0823947   0.4119737), wk =   0.1481481
        k(    6) = (  -0.3985381  -0.4119737  -0.0823947), wk =   0.0000000
        k(    7) = (   0.0797076   0.2471842   0.2471842), wk =   0.0740741
        k(    8) = (  -0.3985381  -0.2471842  -0.2471842), wk =   0.0000000
        k(    9) = (   0.0797076   0.2471842   0.4119737), wk =   0.1481481
        k(   10) = (  -0.3985381  -0.2471842  -0.0823947), wk =   0.0000000
        k(   11) = (   0.0797076   0.4119737   0.4119737), wk =   0.0740741
        k(   12) = (  -0.3985381  -0.0823947  -0.0823947), wk =   0.0000000
        k(   13) = (   0.2391229   0.0823947   0.0823947), wk =   0.0740741
        k(   14) = (  -0.2391229  -0.4119737  -0.4119737), wk =   0.0000000
        k(   15) = (   0.2391229   0.0823947   0.2471842), wk =   0.1481481
        k(   16) = (  -0.2391229  -0.4119737  -0.2471842), wk =   0.0000000
        k(   17) = (   0.2391229   0.0823947   0.4119737), wk =   0.1481481
        k(   18) = (  -0.2391229  -0.4119737  -0.0823947), wk =   0.0000000
        k(   19) = (   0.2391229   0.2471842   0.2471842), wk =   0.0740741
        k(   20) = (  -0.2391229  -0.2471842  -0.2471842), wk =   0.0000000
        k(   21) = (   0.2391229   0.2471842   0.4119737), wk =   0.1481481
        k(   22) = (  -0.2391229  -0.2471842  -0.0823947), wk =   0.0000000
        k(   23) = (   0.2391229   0.4119737   0.4119737), wk =   0.0740741
        k(   24) = (  -0.2391229  -0.0823947  -0.0823947), wk =   0.0000000
        k(   25) = (   0.3985381   0.0823947   0.0823947), wk =   0.0740741
        k(   26) = (  -0.0797076  -0.4119737  -0.4119737), wk =   0.0000000
        k(   27) = (   0.3985381   0.0823947   0.2471842), wk =   0.1481481
        k(   28) = (  -0.0797076  -0.4119737  -0.2471842), wk =   0.0000000
        k(   29) = (   0.3985381   0.0823947   0.4119737), wk =   0.1481481
        k(   30) = (  -0.0797076  -0.4119737  -0.0823947), wk =   0.0000000
        k(   31) = (   0.3985381   0.2471842   0.2471842), wk =   0.0740741
        k(   32) = (  -0.0797076  -0.2471842  -0.2471842), wk =   0.0000000
        k(   33) = (   0.3985381   0.2471842   0.4119737), wk =   0.1481481
        k(   34) = (  -0.0797076  -0.2471842  -0.0823947), wk =   0.0000000
        k(   35) = (   0.3985381   0.4119737   0.4119737), wk =   0.0740741
        k(   36) = (  -0.0797076  -0.0823947  -0.0823947), wk =   0.0000000

     The potential is recalculated from file :
     ./_ph0/bto.save/charge-density.dat

     Starting wfc are   35 atomic wfcs

     Band Structure Calculation
     Davidson diagonalization with overlap

     ethr =  2.50E-11,  avg # of iterations = 19.5

     End of band structure calculation

[...]

          k = 0.3985 0.4120 0.4120 (  7317 PWs)   bands (ev):

[...]

          k =-0.0797-0.0824-0.0824 (  7301 PWs)   bands (ev):

   -46.1305 -22.4600 -22.3681 -22.3679 -14.3281  -6.5651  -5.9559  -5.8551
     0.4593   0.4787   0.5923   7.6581   7.8097   7.8516   8.4818   8.5037
     8.9488   9.3094   9.7549   9.8226  12.4948  12.8228  12.8399  14.8903

     highest occupied, lowest unoccupied level (ev):    10.1889   12.4948

     Writing output data file bto.save

     bravais-lattice index     =            0
     lattice parameter (alat)  =       7.4000  a.u.
     unit-cell volume          =     433.3637 (a.u.)^3
     number of atoms/cell      =            5
     number of atomic types    =            3
     kinetic-energy cut-off    =     100.0000  Ry
     charge density cut-off    =     800.0000  Ry
     convergence threshold     =      1.0E-12
     beta                      =       0.7000
     number of iterations used =            4
     Exchange-correlation      =  SLA  PW   PBE  PBE ( 1  4  3  4 0 0)

     celldm(1)=    7.40000  celldm(2)=    0.00000  celldm(3)=    0.00000
     celldm(4)=    0.00000  celldm(5)=    0.00000  celldm(6)=    0.00000

     crystal axes: (cart. coord. in units of alat)
               a(1) = (  1.0455  0.0000  0.0000 )
               a(2) = (  0.0000  1.0114  0.0000 )
               a(3) = (  0.0000  0.0000  1.0114 )

     reciprocal axes: (cart. coord. in units 2 pi/alat)
               b(1) = (  0.9565  0.0000  0.0000 )
               b(2) = (  0.0000  0.9887  0.0000 )
               b(3) = (  0.0000  0.0000  0.9887 )

     Atoms inside the unit cell:

     Cartesian axes

     site n.  atom      mass           positions (alat units)
        1     Ba 137.3300   tau(    1) = (   -0.02436    0.00000    0.00000  )
        2     Ti  47.8800   tau(    2) = (    0.48945    0.50570    0.50570  )
        3     O   15.9900   tau(    3) = (    0.02285    0.50570    0.50570  )
        4     O   15.9900   tau(    4) = (    0.53492    0.00000    0.50570  )
        5     O   15.9900   tau(    5) = (    0.53492    0.50570    0.00000  )

     Computing dynamical matrix for
                    q = (  -0.4782457  -0.4943685  -0.4943685 )

      9 Sym.Ops. (with q -> -q+G )

     G cutoff = 1109.6696  (   5915 G-vectors)     FFT grid: ( 72, 72, 72)
     G cutoff =  554.8348  (   2092 G-vectors)  smooth grid: ( 50, 48, 48)
     number of k points=    36

     PseudoPot. # 1 for O  read from file:
     ../../PSP_DIR/O.pbe-rrkjus.UPF
     MD5 check sum: 390ba29e75625707450f3bd3f0eb6be9
     Pseudo is Ultrasoft, Zval =  6.0
     Generated by new atomic code, or converted to UPF format
     Using radial grid of 1269 points,  4 beta functions with:
                l(1) =   0
                l(2) =   0
                l(3) =   1
                l(4) =   1
     Q(r) pseudized with 0 coefficients

     PseudoPot. # 2 for Ti read from file:
     ../../PSP_DIR/Ti.pbe-sp-van_ak.UPF
     MD5 check sum: 8e4df49b7f0d34bbd5052bf3f5ea0213
     Pseudo is Ultrasoft, Zval = 12.0
     Generated by new atomic code, or converted to UPF format
     Using radial grid of  851 points,  6 beta functions with:
                l(1) =   0
                l(2) =   0
                l(3) =   1
                l(4) =   1
                l(5) =   2
                l(6) =   2
     Q(r) pseudized with  8 coefficients,  rinner =    1.000   1.000   1.000
                                                       1.000   1.000

     PseudoPot. # 3 for Ba read from file:
     ../../PSP_DIR/Ba.pbe-nsp-van.UPF
     MD5 check sum: a011de417d3466d8e94df216395bc359
     Pseudo is Ultrasoft + core correction, Zval = 10.0
     Generated by new atomic code, or converted to UPF format
     Using radial grid of  907 points,  6 beta functions with:
                l(1) =   0
                l(2) =   0
                l(3) =   1
                l(4) =   1
                l(5) =   2
                l(6) =   2
     Q(r) pseudized with  6 coefficients,  rinner =    1.200   1.200   1.200
                                                       1.200   1.200

[...]

     Atomic displacements:
     There are  11 irreducible representations

[...]

     Representation     4      1 modes -B_1  G_3 D_2  To be done

[...]

     Representation     7      1 modes -B_2  G_4 D_2'  To be done

[...]

     Representation    11      2 modes -E    G_5 D_5  To be done

     Alpha used in Ewald sum =   2.8000

[...]

     Representation #  7 mode #   7

[...]

     Representation # 11 modes #  14 15

     Self-consistent Calculation

[...]

      thresh= 3.107E-07 alpha_mix =  0.700 |ddv_scf|^2 =  3.489E-13

     End of self-consistent calculation

     Convergence has been achieved

     Number of q in the star =    1
     List of q in the star:
          1  -0.478245736  -0.494368469  -0.494368469

     Diagonalizing the dynamical matrix

     q = (   -0.478245736  -0.494368469  -0.494368469 )

     freq (    1) =       3.145187 [THz] =     104.912153 [cm-1]
     freq (    2) =       3.358749 [THz] =     112.035804 [cm-1]
     freq (    3) =       3.358749 [THz] =     112.035804 [cm-1]
     freq (    4) =       4.093604 [THz] =     136.547946 [cm-1]
     freq (    5) =       4.093604 [THz] =     136.547946 [cm-1]
     freq (    6) =       4.574352 [THz] =     152.583967 [cm-1]
     freq (    7) =       7.292985 [THz] =     243.267787 [cm-1]
     freq (    8) =      11.197460 [THz] =     373.507050 [cm-1]
     freq (    9) =      11.197460 [THz] =     373.507050 [cm-1]
     freq (   10) =      11.665533 [THz] =     389.120304 [cm-1]
     freq (   11) =      12.103281 [THz] =     403.722004 [cm-1]
     freq (   12) =      12.103281 [THz] =     403.722004 [cm-1]
     freq (   13) =      12.732762 [THz] =     424.719240 [cm-1]
     freq (   14) =      17.223621 [THz] =     574.518167 [cm-1]
     freq (   15) =      23.009393 [THz] =     767.510750 [cm-1]

     Mode symmetry, C_4v (4mm)  point group:

     freq (  1 -  1) =        104.9  [cm-1]   --> A_1  G_1 D_1
     freq (  2 -  3) =        112.0  [cm-1]   --> E    G_5 D_5
     freq (  4 -  5) =        136.5  [cm-1]   --> E    G_5 D_5
     freq (  6 -  6) =        152.6  [cm-1]   --> B_1  G_3 D_2
     freq (  7 -  7) =        243.3  [cm-1]   --> B_2  G_4 D_2'
     freq (  8 -  9) =        373.5  [cm-1]   --> E    G_5 D_5
     freq ( 10 - 10) =        389.1  [cm-1]   --> A_2  G_2 D_1'
     freq ( 11 - 12) =        403.7  [cm-1]   --> E    G_5 D_5
     freq ( 13 - 13) =        424.7  [cm-1]   --> A_1  G_1 D_1
     freq ( 14 - 14) =        574.5  [cm-1]   --> B_2  G_4 D_2'
     freq ( 15 - 15) =        767.5  [cm-1]   --> B_2  G_4 D_2'

     General routines

     Parallel routines

     INITIALIZATION:

     DYNAMICAL MATRIX:

      General routines

   This run was terminated on:  15:44:53   8Jan2018

   JOB DONE.