     Program PHONON v.6.1 (svn rev. 13369) starts on 13Jan2018 at 11:57: 2

     Reading data from directory:
     ./bto.save

   Info: using nr1, nr2, nr3 values from input

[...]

     IMPORTANT: XC functional enforced from input :
     Exchange-correlation      =  SLA  PW   PBE  PBE ( 1  4  3  4 0 0)
     Any further DFT definition will be discarded
     Please, verify this is what you really want

               file O.pbe-rrkjus.UPF: wavefunction(s)  2S renormalized

     Dynamical matrices for ( 4, 4, 4)  uniform grid of q-points
     (  10q-points):
       N         xq(1)         xq(2)         xq(3)
       1   0.000000000   0.000000000   0.000000000
       2   0.000000000   0.000000000   0.250000000
       3   0.000000000   0.000000000  -0.500000000
       4   0.000000000   0.250000000   0.250000000
       5   0.000000000   0.250000000  -0.500000000
       6   0.000000000  -0.500000000  -0.500000000
       7   0.250000000   0.250000000   0.250000000
       8   0.250000000   0.250000000  -0.500000000
       9   0.250000000  -0.500000000  -0.500000000
      10  -0.500000000  -0.500000000  -0.500000000

     Calculation of q =    0.0000000   0.0000000   0.0000000

     bravais-lattice index     =            1
     lattice parameter (alat)  =       7.5234  a.u.
     unit-cell volume          =     425.8418 (a.u.)^3
     number of atoms/cell      =            5
     number of atomic types    =            3
     kinetic-energy cut-off    =      50.0000  Ry
     charge density cut-off    =     400.0000  Ry
     convergence threshold     =      1.0E-12
     beta                      =       0.7000
     number of iterations used =            4
     Exchange-correlation      =  SLA  PW   PBE  PBE ( 1  4  3  4 0 0)

     celldm(1)=    7.52343  celldm(2)=    0.00000  celldm(3)=    0.00000
     celldm(4)=    0.00000  celldm(5)=    0.00000  celldm(6)=    0.00000

     crystal axes: (cart. coord. in units of alat)
               a(1) = (  1.0000  0.0000  0.0000 )
               a(2) = (  0.0000  1.0000  0.0000 )
               a(3) = (  0.0000  0.0000  1.0000 )

     reciprocal axes: (cart. coord. in units 2 pi/alat)
               b(1) = (  1.0000  0.0000  0.0000 )
               b(2) = (  0.0000  1.0000  0.0000 )
               b(3) = (  0.0000  0.0000  1.0000 )

     Atoms inside the unit cell:

     Cartesian axes

     site n.  atom      mass           positions (alat units)
        1     Ba 137.3300   tau(    1) = (    0.00000    0.00000    0.00000  )
        2     Ti  47.8800   tau(    2) = (    0.50000    0.50000    0.50000  )
        3     O   15.9900   tau(    3) = (    0.00000    0.50000    0.50000  )
        4     O   15.9900   tau(    4) = (    0.50000    0.00000    0.50000  )
        5     O   15.9900   tau(    5) = (    0.50000    0.50000    0.00000  )

     Computing dynamical matrix for
                    q = (   0.0000000   0.0000000   0.0000000 )

     49 Sym.Ops. (with q -> -q+G )

     G cutoff =  573.4987  (   2058 G-vectors)     FFT grid: ( 48, 48, 48)
     G cutoff =  286.7494  (    730 G-vectors)  smooth grid: ( 36, 36, 36)
     number of k points=    10

     PseudoPot. # 1 for O  read from file:
     ../../PSP_DIR/O.pbe-rrkjus.UPF
     MD5 check sum: 390ba29e75625707450f3bd3f0eb6be9
     Pseudo is Ultrasoft, Zval =  6.0
     Generated by new atomic code, or converted to UPF format
     Using radial grid of 1269 points,  4 beta functions with:
                l(1) =   0
                l(2) =   0
                l(3) =   1
                l(4) =   1
     Q(r) pseudized with 0 coefficients

     PseudoPot. # 2 for Ti read from file:
     ../../PSP_DIR/Ti.pbe-sp-van_ak.UPF
     MD5 check sum: 8e4df49b7f0d34bbd5052bf3f5ea0213
     Pseudo is Ultrasoft, Zval = 12.0
     Generated by new atomic code, or converted to UPF format
     Using radial grid of  851 points,  6 beta functions with:
                l(1) =   0
                l(2) =   0
                l(3) =   1
                l(4) =   1
                l(5) =   2
                l(6) =   2
     Q(r) pseudized with  8 coefficients,  rinner =    1.000   1.000   1.000
                                                       1.000   1.000

     PseudoPot. # 3 for Ba read from file:
     ../../PSP_DIR/Ba.pbe-nsp-van.UPF
     MD5 check sum: a011de417d3466d8e94df216395bc359
     Pseudo is Ultrasoft + core correction, Zval = 10.0
     Generated by new atomic code, or converted to UPF format
     Using radial grid of  907 points,  6 beta functions with:
                l(1) =   0
                l(2) =   0
                l(3) =   1
                l(4) =   1
                l(5) =   2
                l(6) =   2
     Q(r) pseudized with  6 coefficients,  rinner =    1.200   1.200   1.200
                                                       1.200   1.200

     Mode symmetry, O_h (m-3m)  point group:

     Electric field:
     Dielectric constant
     Born effective charges in two ways

     Atomic displacements:
     There are   5 irreducible representations

     Representation     1      3 modes -T_1u G_15  G_4-  To be done

[...]

     Alpha used in Ewald sum =   2.8000

     Electric Fields Calculation

      thresh= 1.000E-02 alpha_mix =  0.700 |ddv_scf|^2 =  2.410E-08

[...]

     End of electric fields calculation

          Dielectric constant in cartesian axis

          (       6.516798459       0.000000000       0.000000000 )
          (       0.000000000       6.516798459       0.000000000 )
          (      -0.000000000       0.000000000       6.516798459 )

          Effective charges (d Force / dE) in cartesian axis

           atom      1   Ba
      Ex  (        2.52960       -0.00000       -0.00000 )
      Ey  (        0.00000        2.52960       -0.00000 )
      Ez  (       -0.00000        0.00000        2.52960 )
           atom      2   Ti
      Ex  (        7.32213        0.00000        0.00000 )
      Ey  (       -0.00000        7.32213        0.00000 )
      Ez  (        0.00000       -0.00000        7.32213 )
           atom      3   O
      Ex  (       -5.75281        0.00000        0.00000 )
      Ey  (        0.00000       -2.14448        0.00000 )
      Ez  (       -0.00000       -0.00000       -2.14448 )
           atom      4   O
      Ex  (       -2.14448        0.00000        0.00000 )
      Ey  (        0.00000       -5.75281       -0.00000 )
      Ez  (        0.00000        0.00000       -2.14448 )
           atom      5   O
      Ex  (       -2.14448       -0.00000        0.00000 )
      Ey  (        0.00000       -2.14448       -0.00000 )
      Ez  (       -0.00000        0.00000       -5.75281 )

     Representation #  1 modes #   1  2  3

     Self-consistent Calculation

[...]

     End of self-consistent calculation

     Convergence has been achieved

[...]

     Number of q in the star =    1
     List of q in the star:
          1   0.000000000   0.000000000   0.000000000

          Dielectric constant in cartesian axis

          (       6.516798459       0.000000000       0.000000000 )
          (       0.000000000       6.516798459       0.000000000 )
          (      -0.000000000       0.000000000       6.516798459 )

          Effective charges (d Force / dE) in cartesian axis

[...]

          Effective charges (d P / du) in cartesian axis

           atom      1   Ba
      Px  (        2.77445       -0.00000        0.00000 )
      Py  (       -0.00000        2.77445        0.00000 )
      Pz  (       -0.00000       -0.00000        2.77445 )
           atom      2   Ti
      Px  (        7.28818        0.00000        0.00000 )
      Py  (       -0.00000        7.28818       -0.00000 )
      Pz  (        0.00000        0.00000        7.28818 )
           atom      3   O
      Px  (       -5.74890        0.00000        0.00000 )
      Py  (       -0.00000       -2.15049       -0.00000 )
      Pz  (        0.00000        0.00000       -2.15049 )
           atom      4   O
      Px  (       -2.15049        0.00000        0.00000 )
      Py  (       -0.00000       -5.74890        0.00000 )
      Pz  (       -0.00000       -0.00000       -2.15049 )
           atom      5   O
      Px  (       -2.15049        0.00000       -0.00000 )
      Py  (       -0.00000       -2.15049        0.00000 )
      Pz  (       -0.00000       -0.00000       -5.74890 )

     Diagonalizing the dynamical matrix

     q = (    0.000000000   0.000000000   0.000000000 )

     freq (    1) =      -4.173841 [THz] =    -139.224354 [cm-1]
     freq (    2) =      -4.173841 [THz] =    -139.224354 [cm-1]
     freq (    3) =      -4.173841 [THz] =    -139.224354 [cm-1]
     freq (    4) =       1.912495 [THz] =      63.793954 [cm-1]
     freq (    5) =       1.912495 [THz] =      63.793954 [cm-1]
     freq (    6) =       1.912495 [THz] =      63.793954 [cm-1]
     freq (    7) =       4.718313 [THz] =     157.385994 [cm-1]
     freq (    8) =       4.718313 [THz] =     157.385994 [cm-1]
     freq (    9) =       4.718313 [THz] =     157.385994 [cm-1]
     freq (   10) =       8.782222 [THz] =     292.943386 [cm-1]
     freq (   11) =       8.782222 [THz] =     292.943386 [cm-1]
     freq (   12) =       8.782222 [THz] =     292.943386 [cm-1]
     freq (   13) =      14.659479 [THz] =     488.987576 [cm-1]
     freq (   14) =      14.659479 [THz] =     488.987576 [cm-1]
     freq (   15) =      14.659479 [THz] =     488.987576 [cm-1]

[...]

     freq (  1 -  3) =       -139.2  [cm-1]   --> T_1u G_15  G_4- I
     freq (  4 -  6) =         63.8  [cm-1]   --> T_1u G_15  G_4- I
     freq (  7 -  9) =        157.4  [cm-1]   --> T_1u G_15  G_4- I
     freq ( 10 - 12) =        292.9  [cm-1]   --> T_2u G_25  G_5-
     freq ( 13 - 15) =        489.0  [cm-1]   --> T_1u G_15  G_4- I

[...]

     bravais-lattice index     =            1
     lattice parameter (alat)  =       7.5234  a.u.
     unit-cell volume          =     425.8418 (a.u.)^3
     number of atoms/cell      =            5
     number of atomic types    =            3
     number of electrons       =        40.00
     number of Kohn-Sham states=           24
     kinetic-energy cutoff     =      50.0000  Ry
     charge density cutoff     =     400.0000  Ry
     Exchange-correlation      =  SLA  PW   PBE  PBE ( 1  4  3  4 0 0)

[...]

     atomic species   valence    mass     pseudopotential
        O              6.00    15.99000     O ( 1.00)
        Ti            12.00    47.88000     Ti( 1.00)
        Ba            10.00   137.33000     Ba( 1.00)

     48 Sym. Ops., with inversion, found

[...]

     site n.     atom                  positions (alat units)
         1           Ba  tau(   1) = (   0.0000000   0.0000000   0.0000000  )
         2           Ti  tau(   2) = (   0.5000000   0.5000000   0.5000000  )
         3           O   tau(   3) = (   0.0000000   0.5000000   0.5000000  )
         4           O   tau(   4) = (   0.5000000   0.0000000   0.5000000  )
         5           O   tau(   5) = (   0.5000000   0.5000000   0.0000000  )

     number of k points=    72
                       cart. coord. in units 2pi/alat
        k(    1) = (   0.0833333   0.0833333   0.0833333), wk =   0.0370370
[...]
     freq (  8 -  8) =        223.8  [cm-1]   --> A_1  G_1 D_1
     freq (  9 -  9) =        311.3  [cm-1]   --> B_1  G_3 D_2
     freq ( 10 - 11) =        323.9  [cm-1]   --> E    G_5 D_5
     freq ( 12 - 13) =        472.4  [cm-1]   --> E    G_5 D_5
     freq ( 14 - 14) =        492.1  [cm-1]   --> A_1  G_1 D_1
     freq ( 15 - 15) =        677.7  [cm-1]   --> A_1  G_1 D_1

[...]

     Mode symmetry, D_4h(4/mmm) point group:

[...]

     Representation     1      1 modes -A_1g X_1  M_1  To be done

[...]

     Representation     4      2 modes -E_g  X_5  M_5  To be done

[...]

     Representation     7      1 modes -A_2u X_4' M_4'  To be done

[...]

     Representation     9      2 modes -E_u  X_5' M_5'  To be done

[...]

     freq (  1 -  2) =       -112.2  [cm-1]   --> E_g  X_5  M_5
     freq (  3 -  4) =         90.4  [cm-1]   --> E_u  X_5' M_5'
     freq (  5 -  5) =        138.1  [cm-1]   --> A_2u X_4' M_4'
     freq (  6 -  7) =        217.6  [cm-1]   --> E_g  X_5  M_5
     freq (  8 -  8) =        282.1  [cm-1]   --> A_1g X_1  M_1
     freq (  9 -  9) =        327.7  [cm-1]   --> B_1g X_2  M_2
     freq ( 10 - 11) =        340.0  [cm-1]   --> E_u  X_5' M_5'
     freq ( 12 - 13) =        451.9  [cm-1]   --> E_g  X_5  M_5
     freq ( 14 - 14) =        527.0  [cm-1]   --> A_1g X_1  M_1
     freq ( 15 - 15) =        668.7  [cm-1]   --> A_2u X_4' M_4'

[...]

     number of k points=   126

     Number of k-points >= 100: set verbosity='high' to print them.

[...]

     Number of k-points >= 100: set verbosity='high' to print the bands.

[...]

     Mode symmetry, C_2v (mm2)  point group:

[...]

     freq (  1 -  1) =       -139.0  [cm-1]   --> B_1  D_3  S_3
     freq (  2 -  2) =         72.5  [cm-1]   --> B_2  D_4  S_4
     freq (  3 -  3) =         91.7  [cm-1]   --> B_1  D_3  S_3
     freq (  4 -  4) =        105.8  [cm-1]   --> A_1  D_1  S_1
     freq (  5 -  5) =        217.9  [cm-1]   --> B_2  D_4  S_4
     freq (  6 -  6) =        230.7  [cm-1]   --> B_1  D_3  S_3
     freq (  7 -  7) =        244.2  [cm-1]   --> A_1  D_1  S_1
     freq (  8 -  8) =        259.4  [cm-1]   --> B_2  D_4  S_4
     freq (  9 -  9) =        293.8  [cm-1]   --> B_2  D_4  S_4
     freq ( 10 - 10) =        323.5  [cm-1]   --> A_2  D_2  S_2
     freq ( 11 - 11) =        358.6  [cm-1]   --> A_1  D_1  S_1
     freq ( 12 - 12) =        451.6  [cm-1]   --> B_1  D_3  S_3
     freq ( 13 - 13) =        471.0  [cm-1]   --> B_2  D_4  S_4
     freq ( 14 - 14) =        489.1  [cm-1]   --> A_1  D_1  S_1
     freq ( 15 - 15) =        700.0  [cm-1]   --> A_1  D_1  S_1

[...]

     Representation     4      1 modes -B_2g X_3  M_3  To be done

     Representation     5      2 modes -E_g  X_5  M_5  To be done

[...]

     Representation     8      1 modes -B_1u X_2' M_2'  To be done

[...]

     Representation    11      2 modes -E_u  X_5' M_5'  To be done

[...]

     Mode symmetry, D_4h(4/mmm) point group:

     freq (  1 -  1) =        -97.2  [cm-1]   --> B_1u X_2' M_2'
     freq (  2 -  2) =         89.3  [cm-1]   --> A_2u X_4' M_4'
     freq (  3 -  4) =         95.3  [cm-1]   --> E_u  X_5' M_5'
     freq (  5 -  5) =        215.6  [cm-1]   --> B_1g X_2  M_2
     freq (  6 -  7) =        275.3  [cm-1]   --> E_u  X_5' M_5'
     freq (  8 -  9) =        349.4  [cm-1]   --> E_g  X_5  M_5
     freq ( 10 - 10) =        377.5  [cm-1]   --> B_1u X_2' M_2'
     freq ( 11 - 11) =        422.2  [cm-1]   --> A_2g X_4  M_4
     freq ( 12 - 13) =        451.9  [cm-1]   --> E_u  X_5' M_5'
     freq ( 14 - 14) =        471.8  [cm-1]   --> A_1g X_1  M_1
     freq ( 15 - 15) =        722.3  [cm-1]   --> B_2g X_3  M_3

[...]

     Mode symmetry, C_3v (3m)   point group:

[...]

     Representation     1      1 modes -A_1  L_1  To be done

[...]

     Representation     5      1 modes -A_2  L_2  To be done

     Representation     6      2 modes -E    L_3  To be done

[...]

     Representation    10      2 modes -E    L_3  To be done

[...]

     Mode symmetry, C_3v (3m)   point group:

     freq (  1 -  2) =         88.5  [cm-1]   --> E    L_3
     freq (  3 -  3) =         92.2  [cm-1]   --> A_1  L_1
     freq (  4 -  5) =        223.1  [cm-1]   --> E    L_3
     freq (  6 -  6) =        254.5  [cm-1]   --> A_2  L_2
     freq (  7 -  8) =        261.3  [cm-1]   --> E    L_3
     freq (  9 -  9) =        287.0  [cm-1]   --> A_1  L_1
     freq ( 10 - 11) =        376.1  [cm-1]   --> E    L_3
     freq ( 12 - 13) =        460.5  [cm-1]   --> E    L_3
     freq ( 14 - 14) =        482.3  [cm-1]   --> A_1  L_1
     freq ( 15 - 15) =        719.3  [cm-1]   --> A_1  L_1

[...]

     number of k points=   126

     Number of k-points >= 100: set verbosity='high' to print them.

[...]

     Number of k-points >= 100: set verbosity='high' to print the bands.

[...]

     Mode symmetry, C_2v (mm2)  point group:

     freq (  1 -  1) =         90.8  [cm-1]   --> B_2  D_4  S_4
     freq (  2 -  2) =         91.7  [cm-1]   --> A_1  D_1  S_1
     freq (  3 -  3) =        103.2  [cm-1]   --> B_1  D_3  S_3
     freq (  4 -  4) =        231.5  [cm-1]   --> A_2  D_2  S_2
     freq (  5 -  5) =        235.0  [cm-1]   --> A_1  D_1  S_1
     freq (  6 -  6) =        242.0  [cm-1]   --> B_1  D_3  S_3
     freq (  7 -  7) =        243.0  [cm-1]   --> A_2  D_2  S_2
     freq (  8 -  8) =        290.8  [cm-1]   --> B_2  D_4  S_4
     freq (  9 -  9) =        367.4  [cm-1]   --> B_2  D_4  S_4
     freq ( 10 - 10) =        383.7  [cm-1]   --> A_1  D_1  S_1
     freq ( 11 - 11) =        408.9  [cm-1]   --> B_1  D_3  S_3
     freq ( 12 - 12) =        431.2  [cm-1]   --> A_2  D_2  S_2
     freq ( 13 - 13) =        442.1  [cm-1]   --> B_2  D_4  S_4
     freq ( 14 - 14) =        486.9  [cm-1]   --> A_1  D_1  S_1
     freq ( 15 - 15) =        727.3  [cm-1]   --> B_2  D_4  S_4

[...]

      8 Sym.Ops. (no q -> -q+G )

[...]

     Representation     3      1 modes -A_2  G_2 D_1'  To be done

     Representation     4      1 modes -B_1  G_3 D_2  To be done

[...]

     Representation     7      1 modes -B_2  G_4 D_2'  To be done

[...]

     Representation    11      2 modes -E    G_5 D_5  To be done

[...]

     Mode symmetry, C_4v (4mm)  point group:

     freq (  1 -  1) =        103.3  [cm-1]   --> A_1  G_1 D_1
     freq (  2 -  3) =        105.1  [cm-1]   --> E    G_5 D_5
     freq (  4 -  4) =        204.5  [cm-1]   --> B_1  G_3 D_2
     freq (  5 -  6) =        229.8  [cm-1]   --> E    G_5 D_5
     freq (  7 -  7) =        256.6  [cm-1]   --> B_2  G_4 D_2'
     freq (  8 -  9) =        383.6  [cm-1]   --> E    G_5 D_5
     freq ( 10 - 10) =        405.4  [cm-1]   --> B_2  G_4 D_2'
     freq ( 11 - 11) =        406.9  [cm-1]   --> A_2  G_2 D_1'
     freq ( 12 - 13) =        441.0  [cm-1]   --> E    G_5 D_5
     freq ( 14 - 14) =        452.4  [cm-1]   --> A_1  G_1 D_1
     freq ( 15 - 15) =        744.4  [cm-1]   --> B_2  G_4 D_2'

     Calculation of q =   -0.5000000  -0.5000000  -0.5000000

[...]

   Info: using nr1, nr2, nr3 values from input

     bravais-lattice index     =            1
     lattice parameter (alat)  =       7.5234  a.u.
     unit-cell volume          =     425.8418 (a.u.)^3
     number of atoms/cell      =            5
     number of atomic types    =            3
     number of electrons       =        40.00
     number of Kohn-Sham states=           24
     kinetic-energy cutoff     =      50.0000  Ry
     charge density cutoff     =     400.0000  Ry
     Exchange-correlation      =  SLA  PW   PBE  PBE ( 1  4  3  4 0 0)

[...]

     atomic species   valence    mass     pseudopotential
        O              6.00    15.99000     O ( 1.00)
        Ti            12.00    47.88000     Ti( 1.00)
        Ba            10.00   137.33000     Ba( 1.00)

     48 Sym. Ops., with inversion, found

[...]

     site n.     atom                  positions (alat units)
         1           Ba  tau(   1) = (   0.0000000   0.0000000   0.0000000  )
         2           Ti  tau(   2) = (   0.5000000   0.5000000   0.5000000  )
         3           O   tau(   3) = (   0.0000000   0.5000000   0.5000000  )
         4           O   tau(   4) = (   0.5000000   0.0000000   0.5000000  )
         5           O   tau(   5) = (   0.5000000   0.5000000   0.0000000  )

     number of k points=    20
                       cart. coord. in units 2pi/alat
        k(    1) = (   0.0833333   0.0833333   0.0833333), wk =   0.0740741
        k(    2) = (  -0.4166667  -0.4166667  -0.4166667), wk =   0.0000000
        k(    3) = (   0.0833333   0.0833333   0.2500000), wk =   0.2222222
        k(    4) = (  -0.4166667  -0.4166667  -0.2500000), wk =   0.0000000
        k(    5) = (   0.0833333   0.0833333   0.4166667), wk =   0.2222222
        k(    6) = (  -0.4166667  -0.4166667  -0.0833333), wk =   0.0000000
        k(    7) = (   0.0833333   0.2500000   0.2500000), wk =   0.2222222
        k(    8) = (  -0.4166667  -0.2500000  -0.2500000), wk =   0.0000000
        k(    9) = (   0.0833333   0.2500000   0.4166667), wk =   0.4444444
        k(   10) = (  -0.4166667  -0.2500000  -0.0833333), wk =   0.0000000
        k(   11) = (   0.0833333   0.4166667   0.4166667), wk =   0.2222222
        k(   12) = (  -0.4166667  -0.0833333  -0.0833333), wk =   0.0000000
        k(   13) = (   0.2500000   0.2500000   0.2500000), wk =   0.0740741
        k(   14) = (  -0.2500000  -0.2500000  -0.2500000), wk =   0.0000000
        k(   15) = (   0.2500000   0.2500000   0.4166667), wk =   0.2222222
        k(   16) = (  -0.2500000  -0.2500000  -0.0833333), wk =   0.0000000
        k(   17) = (   0.2500000   0.4166667   0.4166667), wk =   0.2222222
        k(   18) = (  -0.2500000  -0.0833333  -0.0833333), wk =   0.0000000
        k(   19) = (   0.4166667   0.4166667   0.4166667), wk =   0.0740741
        k(   20) = (  -0.0833333  -0.0833333  -0.0833333), wk =   0.0000000

     The potential is recalculated from file :
     ./_ph0/bto.save/charge-density.dat

     Starting wfc are   35 atomic wfcs

     Band Structure Calculation
     Davidson diagonalization with overlap

     ethr =  2.50E-11,  avg # of iterations = 18.6

     End of band structure calculation

[...]

          k = 0.4167 0.4167 0.4167 (  2515 PWs)   bands (ev):

[...]

          k =-0.0833-0.0833-0.0833 (  2538 PWs)   bands (ev):

   -46.0512 -22.2870 -22.2867 -22.2867 -14.0069  -6.3570  -5.6899  -5.6899
     0.7769   0.7769   0.9031   7.8909   8.0846   8.0846   8.9205   8.9205
     9.2858   9.8627  10.1670  10.1670  12.5414  12.5918  12.5918  14.8510

     highest occupied, lowest unoccupied level (ev):    10.3135   12.5414

     Writing output data file bto.save

     bravais-lattice index     =            1
     lattice parameter (alat)  =       7.5234  a.u.
     unit-cell volume          =     425.8418 (a.u.)^3
     number of atoms/cell      =            5
     number of atomic types    =            3
     kinetic-energy cut-off    =      50.0000  Ry
     charge density cut-off    =     400.0000  Ry
     convergence threshold     =      1.0E-12
     beta                      =       0.7000
     number of iterations used =            4
     Exchange-correlation      =  SLA  PW   PBE  PBE ( 1  4  3  4 0 0)

     celldm(1)=    7.52343  celldm(2)=    0.00000  celldm(3)=    0.00000
     celldm(4)=    0.00000  celldm(5)=    0.00000  celldm(6)=    0.00000

     crystal axes: (cart. coord. in units of alat)
               a(1) = (  1.0000  0.0000  0.0000 )
               a(2) = (  0.0000  1.0000  0.0000 )
               a(3) = (  0.0000  0.0000  1.0000 )

     reciprocal axes: (cart. coord. in units 2 pi/alat)
               b(1) = (  1.0000  0.0000  0.0000 )
               b(2) = (  0.0000  1.0000  0.0000 )
               b(3) = (  0.0000  0.0000  1.0000 )

     Atoms inside the unit cell:

     Cartesian axes

     site n.  atom      mass           positions (alat units)
        1     Ba 137.3300   tau(    1) = (    0.00000    0.00000    0.00000  )
        2     Ti  47.8800   tau(    2) = (    0.50000    0.50000    0.50000  )
        3     O   15.9900   tau(    3) = (    0.00000    0.50000    0.50000  )
        4     O   15.9900   tau(    4) = (    0.50000    0.00000    0.50000  )
        5     O   15.9900   tau(    5) = (    0.50000    0.50000    0.00000  )

     Computing dynamical matrix for
                    q = (  -0.5000000  -0.5000000  -0.5000000 )

     49 Sym.Ops. (with q -> -q+G )

     G cutoff =  573.4987  (   2058 G-vectors)     FFT grid: ( 48, 48, 48)
     G cutoff =  286.7494  (    730 G-vectors)  smooth grid: ( 36, 36, 36)
     number of k points=    20

     PseudoPot. # 1 for O  read from file:
     ../../PSP_DIR/O.pbe-rrkjus.UPF
     MD5 check sum: 390ba29e75625707450f3bd3f0eb6be9
     Pseudo is Ultrasoft, Zval =  6.0
     Generated by new atomic code, or converted to UPF format
     Using radial grid of 1269 points,  4 beta functions with:
                l(1) =   0
                l(2) =   0
                l(3) =   1
                l(4) =   1
     Q(r) pseudized with 0 coefficients

     PseudoPot. # 2 for Ti read from file:
     ../../PSP_DIR/Ti.pbe-sp-van_ak.UPF
     MD5 check sum: 8e4df49b7f0d34bbd5052bf3f5ea0213
     Pseudo is Ultrasoft, Zval = 12.0
     Generated by new atomic code, or converted to UPF format
     Using radial grid of  851 points,  6 beta functions with:
                l(1) =   0
                l(2) =   0
                l(3) =   1
                l(4) =   1
                l(5) =   2
                l(6) =   2
     Q(r) pseudized with  8 coefficients,  rinner =    1.000   1.000   1.000
                                                       1.000   1.000

     PseudoPot. # 3 for Ba read from file:
     ../../PSP_DIR/Ba.pbe-nsp-van.UPF
     MD5 check sum: a011de417d3466d8e94df216395bc359
     Pseudo is Ultrasoft + core correction, Zval = 10.0
     Generated by new atomic code, or converted to UPF format
     Using radial grid of  907 points,  6 beta functions with:
                l(1) =   0
                l(2) =   0
                l(3) =   1
                l(4) =   1
                l(5) =   2
                l(6) =   2
     Q(r) pseudized with  6 coefficients,  rinner =    1.200   1.200   1.200
                                                       1.200   1.200

[...]

     Atomic displacements:
     There are   6 irreducible representations

     Representation     1      3 modes -T_2g G_25' G_5+  To be done

     Representation     2      1 modes -A_2u G_2'  G_2-  To be done

     Representation     3      2 modes -E_u  G_12' G_3-  To be done

[...]

     Representation     6      3 modes -T_2u G_25  G_5-  To be done

     Alpha used in Ewald sum =   2.8000

[...]

     Representation #  2 mode #   4

[...]

     Representation #  6 modes #  13 14 15

     Self-consistent Calculation

[...]

      thresh= 3.432E-07 alpha_mix =  0.700 |ddv_scf|^2 =  1.308E-14

     End of self-consistent calculation

     Convergence has been achieved

     Number of q in the star =    1
     List of q in the star:
          1  -0.500000000  -0.500000000  -0.500000000

     Diagonalizing the dynamical matrix

     q = (   -0.500000000  -0.500000000  -0.500000000 )

     freq (    1) =       3.424145 [THz] =     114.217185 [cm-1]
     freq (    2) =       3.424145 [THz] =     114.217185 [cm-1]
     freq (    3) =       3.424145 [THz] =     114.217185 [cm-1]
     freq (    4) =       5.767423 [THz] =     192.380526 [cm-1]
     freq (    5) =       5.767423 [THz] =     192.380526 [cm-1]
     freq (    6) =       5.767423 [THz] =     192.380526 [cm-1]
     freq (    7) =      11.702766 [THz] =     390.362240 [cm-1]
     freq (    8) =      11.702766 [THz] =     390.362240 [cm-1]
     freq (    9) =      12.127257 [THz] =     404.521735 [cm-1]
     freq (   10) =      12.127257 [THz] =     404.521735 [cm-1]
     freq (   11) =      12.127257 [THz] =     404.521735 [cm-1]
     freq (   12) =      12.880140 [THz] =     429.635223 [cm-1]
     freq (   13) =      12.880140 [THz] =     429.635223 [cm-1]
     freq (   14) =      12.880140 [THz] =     429.635223 [cm-1]
     freq (   15) =      22.701876 [THz] =     757.253069 [cm-1]

     Mode symmetry, O_h (m-3m)  point group:

     freq (  1 -  3) =        114.2  [cm-1]   --> T_1u G_15  G_4-
     freq (  4 -  6) =        192.4  [cm-1]   --> T_2u G_25  G_5-
     freq (  7 -  8) =        390.4  [cm-1]   --> E_u  G_12' G_3-
     freq (  9 - 11) =        404.5  [cm-1]   --> T_2g G_25' G_5+
     freq ( 12 - 14) =        429.6  [cm-1]   --> T_1u G_15  G_4-
     freq ( 15 - 15) =        757.3  [cm-1]   --> A_2u G_2'  G_2-

     General routines

     Parallel routines

     INITIALIZATION:

     DYNAMICAL MATRIX:

      General routines

   This run was terminated on:  12:32:34  13Jan2018

   JOB DONE.