     Program PWSCF v.6.1 (svn rev. 13369) starts on 30Dec2017 at 18:56:33

     Current dimensions of program PWSCF are:
     Max number of different atomic species (ntypx) = 10
     Max number of k-points (npk) =  40000
     Max angular momentum in pseudopotentials (lmaxx) =  3

     Subspace diagonalization in iterative solution of the eigenvalue problem:
     a serial algorithm will be used

     Title:
     cubic BaTiO3 at 7.40 lattice parameter. xc=PZ

     bravais-lattice index     =            1
     lattice parameter (alat)  =       7.4000  a.u.
     unit-cell volume          =     405.2240 (a.u.)^3
     number of atoms/cell      =            5
     number of atomic types    =            3
     number of electrons       =        40.00
     number of Kohn-Sham states=           24
     kinetic-energy cutoff     =      30.0000  Ry
     charge density cutoff     =     240.0000  Ry
     convergence threshold     =      1.0E-12
     mixing beta               =       0.6000
     number of iterations used =            8  plain     mixing
     Exchange-correlation      = SLA-PZ-NOGX-NOGC ( 1  1  0  0 0 0)

     celldm(1)=   7.400000  celldm(2)=   0.000000  celldm(3)=   0.000000
     celldm(4)=   0.000000  celldm(5)=   0.000000  celldm(6)=   0.000000

     crystal axes: (cart. coord. in units of alat)
               a(1) = (   1.000000   0.000000   0.000000 )
               a(2) = (   0.000000   1.000000   0.000000 )
               a(3) = (   0.000000   0.000000   1.000000 )

     reciprocal axes: (cart. coord. in units 2 pi/alat)
               b(1) = (  1.000000  0.000000  0.000000 )
               b(2) = (  0.000000  1.000000  0.000000 )
               b(3) = (  0.000000  0.000000  1.000000 )

     PseudoPot. # 1 for O  read from file:
     ../../PSP_DIR/O.pz-van_ak.UPF
     MD5 check sum: d814fcb982dd9af4fc6452aae6bb9318
     Pseudo is Ultrasoft, Zval =  6.0
     Generated by new atomic code, or converted to UPF format
     Using radial grid of  737 points,  4 beta functions with:
                l(1) =   0
                l(2) =   0
                l(3) =   1
                l(4) =   1
     Q(r) pseudized with  8 coefficients,  rinner =    0.800   0.800   0.800

     PseudoPot. # 2 for Ti read from file:
     ../../PSP_DIR/Ti.pz-sp-van_ak.UPF
     MD5 check sum: 545d0e6e05332b8871a8093f427cb0ca
     Pseudo is Ultrasoft, Zval = 12.0
     Generated by new atomic code, or converted to UPF format
     Using radial grid of  851 points,  6 beta functions with:
                l(1) =   0
                l(2) =   0
                l(3) =   1
                l(4) =   1
                l(5) =   2
                l(6) =   2
     Q(r) pseudized with  8 coefficients,  rinner =    1.000   1.000   1.000
                                                       1.000   1.000

     PseudoPot. # 3 for Ba read from file:
     ../../PSP_DIR/Ba.pz-sp-hgh.UPF
     MD5 check sum: 155c4e4bbe33bd45901c985a874b3acf
     Pseudo is Norm-conserving, Zval = 10.0
     Generated in analytical, separable form
     Using radial grid of 1251 points,  6 beta functions with:
                l(1) =   0
                l(2) =   0
                l(3) =   1
                l(4) =   1
                l(5) =   2
                l(6) =   3

     atomic species   valence    mass     pseudopotential
        O              6.00    15.99000     O ( 1.00)
        Ti            12.00    47.88000     Ti( 1.00)
        Ba            10.00   137.33000     Ba( 1.00)

     48 Sym. Ops., with inversion, found

   Cartesian axes

     site n.     atom                  positions (alat units)
         1           Ba  tau(   1) = (   0.0000000   0.0000000   0.0000000  )
         2           Ti  tau(   2) = (   0.5000000   0.5000000   0.5000000  )
         3           O   tau(   3) = (   0.0000000   0.5000000   0.5000000  )
         4           O   tau(   4) = (   0.5000000   0.0000000   0.5000000  )
         5           O   tau(   5) = (   0.5000000   0.5000000   0.0000000  )

     number of k points=    10
                       cart. coord. in units 2pi/alat
        k(    1) = (   0.0833333   0.0833333   0.0833333), wk =   0.0740741
        k(    2) = (   0.0833333   0.0833333   0.2500000), wk =   0.2222222
        k(    3) = (   0.0833333   0.0833333   0.4166667), wk =   0.2222222
        k(    4) = (   0.0833333   0.2500000   0.2500000), wk =   0.2222222
        k(    5) = (   0.0833333   0.2500000   0.4166667), wk =   0.4444444
        k(    6) = (   0.0833333   0.4166667   0.4166667), wk =   0.2222222
        k(    7) = (   0.2500000   0.2500000   0.2500000), wk =   0.0740741
        k(    8) = (   0.2500000   0.2500000   0.4166667), wk =   0.2222222
        k(    9) = (   0.2500000   0.4166667   0.4166667), wk =   0.2222222
        k(   10) = (   0.4166667   0.4166667   0.4166667), wk =   0.0740741

     Initial potential from superposition of free atoms

     starting charge   28.99996, renormalised to   40.00000
     Starting wfc are   22 randomized atomic wfcs +    2 random wfc

     Self-consistent Calculation

     iteration #  1     ecut=    30.00 Ry     beta=0.60
     Davidson diagonalization with overlap
     ethr =  1.00E-02,  avg # of iterations =  9.2

     total energy              =     -18.26054241 Ry
     Harris-Foulkes estimate   =    -354.06463557 Ry
     estimated scf accuracy    <     446.51461961 Ry

[...]

          k = 0.0833 0.0833 0.0833     band energies (ev):

   -49.9815 -26.3170 -26.3170 -26.3163 -11.0031  -6.2663  -5.8810  -5.8764
     3.2673   3.2683   3.4593   7.6225   7.6818   7.7016   8.2754   8.2755
     8.6993   9.3978   9.7281   9.7382  10.2769  10.3061  10.4275  11.6688

[...]

     highest occupied, lowest unoccupied level (ev):    10.4398    9.9891

!    total energy              =    -265.16614737 Ry
     Harris-Foulkes estimate   =    -265.23078644 Ry
     estimated scf accuracy    <       4.81251549 Ry

     The total energy is the sum of the following terms:

     one-electron contribution =     -79.97414266 Ry
     hartree contribution      =      55.27167797 Ry
     xc contribution           =     -42.68136448 Ry
     ewald contribution        =    -211.91466265 Ry
     scf correction            =      14.13234445 Ry

[...]

          k = 0.4167 0.4167 0.4167     band energies (ev):

[...]

     one-electron contribution =     -68.12039531 Ry
     hartree contribution      =      58.10330662 Ry
     xc contribution           =     -42.78681400 Ry
     ewald contribution        =    -211.91466265 Ry
     scf correction            =      -0.00159634 Ry

[...]

     total energy              =    -264.72016169 Ry
     Harris-Foulkes estimate   =    -264.72016169 Ry
     estimated scf accuracy    <          2.1E-11 Ry

     iteration # 35     ecut=    30.00 Ry     beta=0.60
     Davidson diagonalization with overlap
     ethr =  1.00E-13,  avg # of iterations =  2.0

     End of self-consistent calculation

          k = 0.0833 0.0833 0.0833 (  1126 PWs)   bands (ev):

[...]

          k = 0.4167 0.4167 0.4167 (  1106 PWs)   bands (ev):

   -44.6604 -21.3098 -21.3087 -21.3087 -13.3582  -4.8670  -4.7327  -4.7327
     0.4010   0.4010   0.5934   6.5381   7.0601   7.0601   8.3359   8.6195
     8.6195  10.8101  10.8101  10.9255  15.4792  15.4792  15.4825  18.3947

     highest occupied, lowest unoccupied level (ev):    10.9255   13.1195

!    total energy              =    -264.72016169 Ry
     Harris-Foulkes estimate   =    -264.72016169 Ry
     estimated scf accuracy    <          3.3E-14 Ry

     The total energy is the sum of the following terms:

     one-electron contribution =     -68.12184992 Ry
     hartree contribution      =      58.10315945 Ry
     xc contribution           =     -42.78680857 Ry
     ewald contribution        =    -211.91466265 Ry

     convergence has been achieved in  35 iterations

     Forces acting on atoms (cartesian axes, Ry/au):

     atom    1 type  3   force =     0.00000000    0.00000000    0.00000000
     atom    2 type  2   force =     0.00000000    0.00000000    0.00000000
     atom    3 type  1   force =     0.00000000    0.00000000    0.00000000
     atom    4 type  1   force =     0.00000000    0.00000000    0.00000000
     atom    5 type  1   force =     0.00000000    0.00000000    0.00000000

     Total force =     0.000000     Total SCF correction =     0.000000

     Computing stress (Cartesian axis) and pressure

          total   stress  (Ry/bohr**3)                   (kbar)     P=   10.86
   0.00007384   0.00000000   0.00000000         10.86      0.00      0.00
   0.00000000   0.00007384   0.00000000          0.00     10.86      0.00
   0.00000000   0.00000000   0.00007384          0.00      0.00     10.86

     Writing output data file bto.save

     General routines

     Parallel routines

   This run was terminated on:  18:56:38  30Dec2017

   JOB DONE.