     Program PWSCF v.6.1 (svn rev. 13369) starts on 30Dec2017 at 18:56:18

     Current dimensions of program PWSCF are:
     Max number of different atomic species (ntypx) = 10
     Max number of k-points (npk) =  40000
     Max angular momentum in pseudopotentials (lmaxx) =  3

     Subspace diagonalization in iterative solution of the eigenvalue problem:
     a serial algorithm will be used

     Title:
     cubic BaTiO3 at 7.40 lattice parameter. xc=PZ

     bravais-lattice index     =            1
     lattice parameter (alat)  =       7.4000  a.u.
     unit-cell volume          =     405.2240 (a.u.)^3
     number of atoms/cell      =            5
     number of atomic types    =            3
     number of electrons       =        40.00
     number of Kohn-Sham states=           24
     kinetic-energy cutoff     =     100.0000  Ry
     charge density cutoff     =     800.0000  Ry
     convergence threshold     =      1.0E-12
     mixing beta               =       0.6000
     number of iterations used =            8  plain     mixing
     Exchange-correlation      = SLA-PZ-NOGX-NOGC ( 1  1  0  0 0 0)

     celldm(1)=   7.400000  celldm(2)=   0.000000  celldm(3)=   0.000000
     celldm(4)=   0.000000  celldm(5)=   0.000000  celldm(6)=   0.000000

     crystal axes: (cart. coord. in units of alat)
               a(1) = (   1.000000   0.000000   0.000000 )
               a(2) = (   0.000000   1.000000   0.000000 )
               a(3) = (   0.000000   0.000000   1.000000 )

     reciprocal axes: (cart. coord. in units 2 pi/alat)
               b(1) = (  1.000000  0.000000  0.000000 )
               b(2) = (  0.000000  1.000000  0.000000 )
               b(3) = (  0.000000  0.000000  1.000000 )

     PseudoPot. # 1 for O  read from file:
     ../../PSP_DIR/O.pz-van_ak.UPF
     MD5 check sum: d814fcb982dd9af4fc6452aae6bb9318
     Pseudo is Ultrasoft, Zval =  6.0
     Generated by new atomic code, or converted to UPF format
     Using radial grid of  737 points,  4 beta functions with:
                l(1) =   0
                l(2) =   0
                l(3) =   1
                l(4) =   1
     Q(r) pseudized with  8 coefficients,  rinner =    0.800   0.800   0.800

     PseudoPot. # 2 for Ti read from file:
     ../../PSP_DIR/Ti.pz-sp-van_ak.UPF
     MD5 check sum: 545d0e6e05332b8871a8093f427cb0ca
     Pseudo is Ultrasoft, Zval = 12.0
     Generated by new atomic code, or converted to UPF format
     Using radial grid of  851 points,  6 beta functions with:
                l(1) =   0
                l(2) =   0
                l(3) =   1
                l(4) =   1
                l(5) =   2
                l(6) =   2
     Q(r) pseudized with  8 coefficients,  rinner =    1.000   1.000   1.000
                                                       1.000   1.000

     PseudoPot. # 3 for Ba read from file:
     ../../PSP_DIR/Ba.pz-sp-hgh.UPF
     MD5 check sum: 155c4e4bbe33bd45901c985a874b3acf
     Pseudo is Norm-conserving, Zval = 10.0
     Generated in analytical, separable form
     Using radial grid of 1251 points,  6 beta functions with:
                l(1) =   0
                l(2) =   0
                l(3) =   1
                l(4) =   1
                l(5) =   2
                l(6) =   3

     atomic species   valence    mass     pseudopotential
        O              6.00    15.99000     O ( 1.00)
        Ti            12.00    47.88000     Ti( 1.00)
        Ba            10.00   137.33000     Ba( 1.00)

     48 Sym. Ops., with inversion, found

   Cartesian axes

     site n.     atom                  positions (alat units)
         1           Ba  tau(   1) = (   0.0000000   0.0000000   0.0000000  )
         2           Ti  tau(   2) = (   0.5000000   0.5000000   0.5000000  )
         3           O   tau(   3) = (   0.0000000   0.5000000   0.5000000  )
         4           O   tau(   4) = (   0.5000000   0.0000000   0.5000000  )
         5           O   tau(   5) = (   0.5000000   0.5000000   0.0000000  )

     number of k points=    10
                       cart. coord. in units 2pi/alat
        k(    1) = (   0.0833333   0.0833333   0.0833333), wk =   0.0740741
        k(    2) = (   0.0833333   0.0833333   0.2500000), wk =   0.2222222
        k(    3) = (   0.0833333   0.0833333   0.4166667), wk =   0.2222222
        k(    4) = (   0.0833333   0.2500000   0.2500000), wk =   0.2222222
        k(    5) = (   0.0833333   0.2500000   0.4166667), wk =   0.4444444
        k(    6) = (   0.0833333   0.4166667   0.4166667), wk =   0.2222222
        k(    7) = (   0.2500000   0.2500000   0.2500000), wk =   0.0740741
        k(    8) = (   0.2500000   0.2500000   0.4166667), wk =   0.2222222
        k(    9) = (   0.2500000   0.4166667   0.4166667), wk =   0.2222222
        k(   10) = (   0.4166667   0.4166667   0.4166667), wk =   0.0740741

     Initial potential from superposition of free atoms

     starting charge   28.99996, renormalised to   40.00000
     Starting wfc are   22 randomized atomic wfcs +    2 random wfc

     Self-consistent Calculation

     iteration #  1     ecut=   100.00 Ry     beta=0.60
     Davidson diagonalization with overlap
     ethr =  1.00E-02,  avg # of iterations = 12.0

     total energy              =      56.12846324 Ry
     Harris-Foulkes estimate   =    -388.55916160 Ry
     estimated scf accuracy    <     586.78987052 Ry

[...]

     negative rho (up, down):  1.066E-07 0.000E+00

[...]

          k = 0.0833 0.0833 0.0833     band energies (ev):

   -37.4824 -16.5019 -14.7016 -14.7014 -14.6893  -5.4658  -4.6726  -4.6693
    -1.3795  -1.3777  -1.2245   8.8386   9.2002   9.2050   9.4542   9.4689
     9.8905  10.9038  11.1295  11.1351  14.7349  15.8499  16.1303  16.1686

[...]

     highest occupied, lowest unoccupied level (ev):    11.1351   14.7349

!    total energy              =    -264.39610321 Ry
     Harris-Foulkes estimate   =    -265.45064068 Ry
     estimated scf accuracy    <       1.81353775 Ry

     The total energy is the sum of the following terms:

     one-electron contribution =     -62.96287085 Ry
     hartree contribution      =      49.55118355 Ry
     xc contribution           =     -42.43387644 Ry
     ewald contribution        =    -211.91466263 Ry
     scf correction            =       3.36412317 Ry

[...]

     iteration # 17     ecut=   100.00 Ry     beta=0.60
     Davidson diagonalization with overlap
     c_bands:  2 eigenvalues not converged
     ethr =  2.43E-03,  avg # of iterations = 10.7

[...]

     negative rho (up, down):  1.106E-08 0.000E+00

[...]

          k = 0.4167 0.4167 0.4167     band energies (ev):

[...]

     one-electron contribution =     -68.19947114 Ry
     hartree contribution      =      58.11933974 Ry
     xc contribution           =     -42.80452829 Ry
     ewald contribution        =    -211.91466263 Ry
     scf correction            =      -0.00686382 Ry

[...]

     total energy              =    -264.80618672 Ry
     Harris-Foulkes estimate   =    -264.80618672 Ry
     estimated scf accuracy    <          4.6E-11 Ry

     iteration # 36     ecut=   100.00 Ry     beta=0.60
     Davidson diagonalization with overlap
     ethr =  1.14E-13,  avg # of iterations =  2.9

     End of self-consistent calculation

          k = 0.0833 0.0833 0.0833 (  6850 PWs)   bands (ev):

[...]

          k = 0.4167 0.4167 0.4167 (  6854 PWs)   bands (ev):

   -44.6900 -21.3507 -21.3504 -21.3504 -13.3899  -4.8808  -4.7473  -4.7473
     0.4329   0.4329   0.6265   6.4886   7.0146   7.0146   8.3100   8.5943
     8.5943  10.7430  10.7430  10.8492  15.4100  15.4100  15.4154  18.3788

     highest occupied, lowest unoccupied level (ev):    10.8492   13.0666

!    total energy              =    -264.80618672 Ry
     Harris-Foulkes estimate   =    -264.80618672 Ry
     estimated scf accuracy    <          4.3E-13 Ry

     The total energy is the sum of the following terms:

     one-electron contribution =     -68.20450049 Ry
     hartree contribution      =      58.11722803 Ry
     xc contribution           =     -42.80425163 Ry
     ewald contribution        =    -211.91466263 Ry

     convergence has been achieved in  36 iterations

     Forces acting on atoms (cartesian axes, Ry/au):

     atom    1 type  3   force =     0.00000000   -0.00000000    0.00000000
     atom    2 type  2   force =     0.00000000    0.00000000    0.00000000
     atom    3 type  1   force =     0.00000000    0.00000000    0.00000000
     atom    4 type  1   force =     0.00000000    0.00000000    0.00000000
     atom    5 type  1   force =     0.00000000    0.00000000    0.00000000

     Total force =     0.000000     Total SCF correction =     0.000000

     Computing stress (Cartesian axis) and pressure

          total   stress  (Ry/bohr**3)                   (kbar)     P=   28.77
   0.00019561   0.00000000   0.00000000         28.77      0.00      0.00
   0.00000000   0.00019561   0.00000000          0.00     28.77      0.00
   0.00000000   0.00000000   0.00019561          0.00      0.00     28.77

     Writing output data file bto.save

     General routines

     Parallel routines

   This run was terminated on:  18:56:31  30Dec2017

   JOB DONE.