     Program PWSCF v.6.1 (svn rev. 13369) starts on 30Dec2017 at 17: 0: 8

     Current dimensions of program PWSCF are:
     Max number of different atomic species (ntypx) = 10
     Max number of k-points (npk) =  40000
     Max angular momentum in pseudopotentials (lmaxx) =  3

     Subspace diagonalization in iterative solution of the eigenvalue problem:
     a serial algorithm will be used

     Title:
     cubic BaTiO3 at 7.40 lattice parameter. xc=PZ

     bravais-lattice index     =            1
     lattice parameter (alat)  =       7.4000  a.u.
     unit-cell volume          =     405.2240 (a.u.)^3
     number of atoms/cell      =            5
     number of atomic types    =            3
     number of electrons       =        40.00
     number of Kohn-Sham states=           24
     kinetic-energy cutoff     =      60.0000  Ry
     charge density cutoff     =     480.0000  Ry
     convergence threshold     =      1.0E-12
     mixing beta               =       0.6000
     number of iterations used =            8  plain     mixing
     Exchange-correlation      = SLA-PZ-NOGX-NOGC ( 1  1  0  0 0 0)

     celldm(1)=   7.400000  celldm(2)=   0.000000  celldm(3)=   0.000000
     celldm(4)=   0.000000  celldm(5)=   0.000000  celldm(6)=   0.000000

     crystal axes: (cart. coord. in units of alat)
               a(1) = (   1.000000   0.000000   0.000000 )
               a(2) = (   0.000000   1.000000   0.000000 )
               a(3) = (   0.000000   0.000000   1.000000 )

     reciprocal axes: (cart. coord. in units 2 pi/alat)
               b(1) = (  1.000000  0.000000  0.000000 )
               b(2) = (  0.000000  1.000000  0.000000 )
               b(3) = (  0.000000  0.000000  1.000000 )

     PseudoPot. # 1 for O  read from file:
     ../../PSP_DIR/O.pz-van_ak.UPF
     MD5 check sum: d814fcb982dd9af4fc6452aae6bb9318
     Pseudo is Ultrasoft, Zval =  6.0
     Generated by new atomic code, or converted to UPF format
     Using radial grid of  737 points,  4 beta functions with:
                l(1) =   0
                l(2) =   0
                l(3) =   1
                l(4) =   1
     Q(r) pseudized with  8 coefficients,  rinner =    0.800   0.800   0.800

     PseudoPot. # 2 for Ti read from file:
     ../../PSP_DIR/Ti.pz-sp-van_ak.UPF
     MD5 check sum: 545d0e6e05332b8871a8093f427cb0ca
     Pseudo is Ultrasoft, Zval = 12.0
     Generated by new atomic code, or converted to UPF format
     Using radial grid of  851 points,  6 beta functions with:
                l(1) =   0
                l(2) =   0
                l(3) =   1
                l(4) =   1
                l(5) =   2
                l(6) =   2
     Q(r) pseudized with  8 coefficients,  rinner =    1.000   1.000   1.000
                                                       1.000   1.000

     PseudoPot. # 3 for Ba read from file:
     ../../PSP_DIR/Ba.pz-sp-hgh.UPF
     MD5 check sum: 155c4e4bbe33bd45901c985a874b3acf
     Pseudo is Norm-conserving, Zval = 10.0
     Generated in analytical, separable form
     Using radial grid of 1251 points,  6 beta functions with:
                l(1) =   0
                l(2) =   0
                l(3) =   1
                l(4) =   1
                l(5) =   2
                l(6) =   3

     atomic species   valence    mass     pseudopotential
        O              6.00    15.99000     O ( 1.00)
        Ti            12.00    47.88000     Ti( 1.00)
        Ba            10.00   137.33000     Ba( 1.00)

     48 Sym. Ops., with inversion, found

   Cartesian axes

     site n.     atom                  positions (alat units)
         1           Ba  tau(   1) = (   0.0000000   0.0000000   0.0000000  )
         2           Ti  tau(   2) = (   0.5000000   0.5000000   0.5000000  )
         3           O   tau(   3) = (   0.0000000   0.5000000   0.5000000  )
         4           O   tau(   4) = (   0.5000000   0.0000000   0.5000000  )
         5           O   tau(   5) = (   0.5000000   0.5000000   0.0000000  )

     number of k points=    10
                       cart. coord. in units 2pi/alat
        k(    1) = (   0.0833333   0.0833333   0.0833333), wk =   0.0740741
        k(    2) = (   0.0833333   0.0833333   0.2500000), wk =   0.2222222
        k(    3) = (   0.0833333   0.0833333   0.4166667), wk =   0.2222222
        k(    4) = (   0.0833333   0.2500000   0.2500000), wk =   0.2222222
        k(    5) = (   0.0833333   0.2500000   0.4166667), wk =   0.4444444
        k(    6) = (   0.0833333   0.4166667   0.4166667), wk =   0.2222222
        k(    7) = (   0.2500000   0.2500000   0.2500000), wk =   0.0740741
        k(    8) = (   0.2500000   0.2500000   0.4166667), wk =   0.2222222
        k(    9) = (   0.2500000   0.4166667   0.4166667), wk =   0.2222222
        k(   10) = (   0.4166667   0.4166667   0.4166667), wk =   0.0740741

     Initial potential from superposition of free atoms

     starting charge   28.99996, renormalised to   40.00000
     Starting wfc are   22 randomized atomic wfcs +    2 random wfc

     Self-consistent Calculation

     iteration #  1     ecut=    60.00 Ry     beta=0.60
     Davidson diagonalization with overlap
     ethr =  1.00E-02,  avg # of iterations = 11.7

     total energy              =      43.70235421 Ry
     Harris-Foulkes estimate   =    -373.65412634 Ry
     estimated scf accuracy    <     551.71977558 Ry

[...]

     negative rho (up, down):  1.282E-02 0.000E+00

[...]

          k = 0.0833 0.0833 0.0833     band energies (ev):

   -59.6975 -35.6989 -35.6983 -35.6982 -10.1613  -9.3763  -9.3762  -1.0106
     0.4340   0.4342   0.4397   1.5516   1.5530   3.2994   4.0884   4.0894
     6.3832   6.4210   6.4220   6.6901   6.6902   6.7626  12.8908  13.2925

[...]

     highest occupied, lowest unoccupied level (ev):     7.6469    6.6902

!    total energy              =    -270.91198913 Ry
     Harris-Foulkes estimate   =    -272.34235481 Ry
     estimated scf accuracy    <      54.78593163 Ry

     The total energy is the sum of the following terms:

     one-electron contribution =    -119.56243438 Ry
     hartree contribution      =      51.82494658 Ry
     xc contribution           =     -43.13806170 Ry
     ewald contribution        =    -211.91466263 Ry
     scf correction            =      51.87822301 Ry

[...]

     negative rho (up, down):  1.085E-08 0.000E+00

[...]

          k = 0.4167 0.4167 0.4167     band energies (ev):

[...]

     one-electron contribution =     -68.15853743 Ry
     hartree contribution      =      58.12575135 Ry
     xc contribution           =     -42.80406776 Ry
     ewald contribution        =    -211.91466263 Ry
     scf correction            =      -0.03757572 Ry

[...]

     total energy              =    -264.78913020 Ry
     Harris-Foulkes estimate   =    -264.78913020 Ry
     estimated scf accuracy    <          1.2E-12 Ry

     iteration # 38     ecut=    60.00 Ry     beta=0.60
     Davidson diagonalization with overlap
     ethr =  1.00E-13,  avg # of iterations =  1.0

     End of self-consistent calculation

          k = 0.0833 0.0833 0.0833 (  3164 PWs)   bands (ev):

[...]

          k = 0.4167 0.4167 0.4167 (  3181 PWs)   bands (ev):

   -44.6667 -21.3270 -21.3267 -21.3267 -13.4358  -4.8661  -4.7320  -4.7320
     0.4078   0.4078   0.6011   6.5158   7.0392   7.0392   8.3200   8.6036
     8.6036  10.7774  10.7774  10.8896  15.4388  15.4388  15.4428  18.3796

     highest occupied, lowest unoccupied level (ev):    10.8896   13.0898

!    total energy              =    -264.78913020 Ry
     Harris-Foulkes estimate   =    -264.78913020 Ry
     estimated scf accuracy    <          2.7E-14 Ry

     The total energy is the sum of the following terms:

     one-electron contribution =     -68.20138665 Ry
     hartree contribution      =      58.13144372 Ry
     xc contribution           =     -42.80452464 Ry
     ewald contribution        =    -211.91466263 Ry

     convergence has been achieved in  38 iterations

     Forces acting on atoms (cartesian axes, Ry/au):

     atom    1 type  3   force =     0.00000000    0.00000000    0.00000000
     atom    2 type  2   force =     0.00000000   -0.00000000    0.00000000
     atom    3 type  1   force =     0.00000000    0.00000000    0.00000000
     atom    4 type  1   force =     0.00000000    0.00000000    0.00000000
     atom    5 type  1   force =     0.00000000   -0.00000000   -0.00000000

     Total force =     0.000000     Total SCF correction =     0.000000

     Computing stress (Cartesian axis) and pressure

          total   stress  (Ry/bohr**3)                   (kbar)     P=   28.74
   0.00019539   0.00000000   0.00000000         28.74      0.00      0.00
   0.00000000   0.00019539   0.00000000          0.00     28.74      0.00
   0.00000000   0.00000000   0.00019539          0.00      0.00     28.74

     Writing output data file bto.save

     General routines

     Parallel routines

   This run was terminated on:  17: 0:16  30Dec2017

   JOB DONE.