     Program PHONON v.6.1 (svn rev. 13369) starts on 10Jan2018 at 11:41: 1

     Reading data from directory:
     ./bto.save

   Info: using nr1, nr2, nr3 values from input

[...]

     IMPORTANT: XC functional enforced from input :
     Exchange-correlation      =  SLA  PW   PBE  PBE ( 1  4  3  4 0 0)
     Any further DFT definition will be discarded
     Please, verify this is what you really want

               file O.pbe-rrkjus.UPF: wavefunction(s)  2S renormalized

     Dynamical matrices for ( 4, 4, 4)  uniform grid of q-points
     (  18q-points):
       N         xq(1)         xq(2)         xq(3)
       1   0.000000000   0.000000000   0.000000000
       2   0.000000000   0.000000000   0.241846804
       3   0.000000000   0.000000000  -0.483693608
       4   0.000000000   0.250000000   0.000000000
       5   0.000000000   0.250000000   0.241846804
       6   0.000000000   0.250000000  -0.483693608
       7   0.000000000  -0.500000000   0.000000000
       8   0.000000000  -0.500000000   0.241846804
       9   0.000000000  -0.500000000  -0.483693608
      10   0.250000000   0.250000000   0.000000000
      11   0.250000000   0.250000000   0.241846804
      12   0.250000000   0.250000000  -0.483693608
      13   0.250000000  -0.500000000   0.000000000
      14   0.250000000  -0.500000000   0.241846804
      15   0.250000000  -0.500000000  -0.483693608
      16  -0.500000000  -0.500000000   0.000000000
      17  -0.500000000  -0.500000000   0.241846804
      18  -0.500000000  -0.500000000  -0.483693608

     Calculation of q =    0.0000000   0.0000000   0.0000000

     bravais-lattice index     =            6
     lattice parameter (alat)  =       7.4843  a.u.
     unit-cell volume          =     433.3637 (a.u.)^3
     number of atoms/cell      =            5
     number of atomic types    =            3
     kinetic-energy cut-off    =      50.0000  Ry
     charge density cut-off    =     400.0000  Ry
     convergence threshold     =      1.0E-12
     beta                      =       0.7000
     number of iterations used =            4
     Exchange-correlation      =  SLA  PW   PBE  PBE ( 1  4  3  4 0 0)

     celldm(1)=    7.48430  celldm(2)=    0.00000  celldm(3)=    1.03371
     celldm(4)=    0.00000  celldm(5)=    0.00000  celldm(6)=    0.00000

     crystal axes: (cart. coord. in units of alat)
               a(1) = (  1.0000  0.0000  0.0000 )
               a(2) = (  0.0000  1.0000  0.0000 )
               a(3) = (  0.0000  0.0000  1.0337 )

     reciprocal axes: (cart. coord. in units 2 pi/alat)
               b(1) = (  1.0000  0.0000  0.0000 )
               b(2) = (  0.0000  1.0000  0.0000 )
               b(3) = (  0.0000  0.0000  0.9674 )

     Atoms inside the unit cell:

     Cartesian axes

     site n.  atom      mass           positions (alat units)
        1     Ba 137.3300   tau(    1) = (    0.00000    0.00000    0.02409  )
        2     Ti  47.8800   tau(    2) = (    0.50000    0.50000    0.48394  )
        3     O   15.9900   tau(    3) = (    0.50000    0.50000    0.02259  )
        4     O   15.9900   tau(    4) = (    0.00000    0.50000    0.52890  )
        5     O   15.9900   tau(    5) = (    0.50000    0.00000    0.52890  )

     Computing dynamical matrix for
                    q = (   0.0000000   0.0000000   0.0000000 )

      9 Sym.Ops. (with q -> -q+G )

     G cutoff =  567.5474  (   2091 G-vectors)     FFT grid: ( 48, 48, 50)
     G cutoff =  283.7737  (    741 G-vectors)  smooth grid: ( 36, 36, 36)
     number of k points=    18

     PseudoPot. # 1 for O  read from file:
     ../../PSP_DIR/O.pbe-rrkjus.UPF
     MD5 check sum: 390ba29e75625707450f3bd3f0eb6be9
     Pseudo is Ultrasoft, Zval =  6.0
     Generated by new atomic code, or converted to UPF format
     Using radial grid of 1269 points,  4 beta functions with:
                l(1) =   0
                l(2) =   0
                l(3) =   1
                l(4) =   1
     Q(r) pseudized with 0 coefficients

     PseudoPot. # 2 for Ti read from file:
     ../../PSP_DIR/Ti.pbe-sp-van_ak.UPF
     MD5 check sum: 8e4df49b7f0d34bbd5052bf3f5ea0213
     Pseudo is Ultrasoft, Zval = 12.0
     Generated by new atomic code, or converted to UPF format
     Using radial grid of  851 points,  6 beta functions with:
                l(1) =   0
                l(2) =   0
                l(3) =   1
                l(4) =   1
                l(5) =   2
                l(6) =   2
     Q(r) pseudized with  8 coefficients,  rinner =    1.000   1.000   1.000
                                                       1.000   1.000

     PseudoPot. # 3 for Ba read from file:
     ../../PSP_DIR/Ba.pbe-nsp-van.UPF
     MD5 check sum: a011de417d3466d8e94df216395bc359
     Pseudo is Ultrasoft + core correction, Zval = 10.0
     Generated by new atomic code, or converted to UPF format
     Using radial grid of  907 points,  6 beta functions with:
                l(1) =   0
                l(2) =   0
                l(3) =   1
                l(4) =   1
                l(5) =   2
                l(6) =   2
     Q(r) pseudized with  6 coefficients,  rinner =    1.200   1.200   1.200
                                                       1.200   1.200

     Mode symmetry, C_4v (4mm)  point group:

     Electric field:
     Dielectric constant
     Born effective charges in two ways

     Atomic displacements:
     There are  10 irreducible representations

     Representation     1      1 modes -A_1  G_1 D_1  To be done

[...]

     Representation     6      2 modes -E    G_5 D_5  To be done

[...]

     Alpha used in Ewald sum =   2.8000

     Electric Fields Calculation

      thresh= 1.000E-02 alpha_mix =  0.700 |ddv_scf|^2 =  1.449E-07

[...]

     End of electric fields calculation

          Dielectric constant in cartesian axis

          (       6.226907374       0.000000000      -0.000000000 )
          (       0.000000000       6.226907374       0.000000000 )
          (       0.000000000       0.000000000       5.263718819 )

          Effective charges (d Force / dE) in cartesian axis

           atom      1   Ba
      Ex  (        2.50591        0.00000       -0.00000 )
      Ey  (        0.00000        2.50591        0.00000 )
      Ez  (        0.00000        0.00000        2.57181 )
           atom      2   Ti
      Ex  (        6.93993       -0.00000       -0.00000 )
      Ey  (       -0.00000        6.93993       -0.00000 )
      Ez  (        0.00000        0.00000        5.22703 )
           atom      3   O
      Ex  (       -2.00861        0.00000       -0.00000 )
      Ey  (        0.00000       -2.00861        0.00000 )
      Ez  (       -0.00000        0.00000       -4.21676 )
           atom      4   O
      Ex  (       -5.54814        0.00000        0.00000 )
      Ey  (        0.00000       -2.13956        0.00000 )
      Ez  (        0.00000        0.00000       -1.91679 )
           atom      5   O
      Ex  (       -2.13956        0.00000        0.00000 )
      Ey  (        0.00000       -5.54814        0.00000 )
      Ez  (       -0.00000        0.00000       -1.91679 )

     Representation #  1 mode #   1

     Self-consistent Calculation

[...]

     End of self-consistent calculation

     Convergence has been achieved

[...]

     Representation #  6 modes #   6  7

[...]

     Number of q in the star =    1
     List of q in the star:
          1   0.000000000   0.000000000   0.000000000

          Dielectric constant in cartesian axis

          (       6.226907374       0.000000000      -0.000000000 )
          (       0.000000000       6.226907374       0.000000000 )
          (       0.000000000       0.000000000       5.263718819 )

          Effective charges (d Force / dE) in cartesian axis

[...]

          Effective charges (d P / du) in cartesian axis

           atom      1   Ba
      Px  (        2.75733        0.00000        0.00000 )
      Py  (        0.00000        2.75733        0.00000 )
      Pz  (        0.00000        0.00000        2.82186 )
           atom      2   Ti
      Px  (        6.93350        0.00000        0.00000 )
      Py  (        0.00000        6.93350        0.00000 )
      Pz  (        0.00000        0.00000        5.22938 )
           atom      3   O
      Px  (       -2.01515        0.00000        0.00000 )
      Py  (        0.00000       -2.01515        0.00000 )
      Pz  (        0.00000        0.00000       -4.21155 )
           atom      4   O
      Px  (       -5.54859        0.00000        0.00000 )
      Py  (        0.00000       -2.14034        0.00000 )
      Pz  (       -0.00000        0.00000       -1.91953 )
           atom      5   O
      Px  (       -2.14034        0.00000        0.00000 )
      Py  (        0.00000       -5.54859        0.00000 )
      Pz  (        0.00000        0.00000       -1.91953 )

     Diagonalizing the dynamical matrix

     q = (    0.000000000   0.000000000   0.000000000 )

     freq (    1) =      -3.090880 [THz] =    -103.100675 [cm-1]
     freq (    2) =      -3.090880 [THz] =    -103.100675 [cm-1]
     freq (    3) =      -1.834116 [THz] =     -61.179519 [cm-1]
     freq (    4) =      -1.834116 [THz] =     -61.179519 [cm-1]
     freq (    5) =       0.507314 [THz] =      16.922159 [cm-1]
     freq (    6) =       3.861274 [THz] =     128.798228 [cm-1]
     freq (    7) =       3.974803 [THz] =     132.585146 [cm-1]
     freq (    8) =       3.974803 [THz] =     132.585146 [cm-1]
     freq (    9) =       7.851732 [THz] =     261.905582 [cm-1]
     freq (   10) =       8.607867 [THz] =     287.127529 [cm-1]
     freq (   11) =       8.607867 [THz] =     287.127529 [cm-1]
     freq (   12) =      10.181654 [THz] =     339.623428 [cm-1]
     freq (   13) =      13.969490 [THz] =     465.972045 [cm-1]
     freq (   14) =      13.969490 [THz] =     465.972045 [cm-1]
     freq (   15) =      16.525886 [THz] =     551.244218 [cm-1]

[...]

     freq (  1 -  2) =       -103.1  [cm-1]   --> E    G_5 D_5    I+R
     freq (  3 -  4) =        -61.2  [cm-1]   --> E    G_5 D_5    I+R
     freq (  5 -  5) =         16.9  [cm-1]   --> A_1  G_1 D_1    I+R
     freq (  6 -  6) =        128.8  [cm-1]   --> A_1  G_1 D_1    I+R
     freq (  7 -  8) =        132.6  [cm-1]   --> E    G_5 D_5    I+R
     freq (  9 -  9) =        261.9  [cm-1]   --> B_1  G_3 D_2    R
     freq ( 10 - 11) =        287.1  [cm-1]   --> E    G_5 D_5    I+R
     freq ( 12 - 12) =        339.6  [cm-1]   --> A_1  G_1 D_1    I+R
     freq ( 13 - 14) =        466.0  [cm-1]   --> E    G_5 D_5    I+R
     freq ( 15 - 15) =        551.2  [cm-1]   --> A_1  G_1 D_1    I+R

[...]

     bravais-lattice index     =            6
     lattice parameter (alat)  =       7.4843  a.u.
     unit-cell volume          =     433.3637 (a.u.)^3
     number of atoms/cell      =            5
     number of atomic types    =            3
     number of electrons       =        40.00
     number of Kohn-Sham states=           24
     kinetic-energy cutoff     =      50.0000  Ry
     charge density cutoff     =     400.0000  Ry
     Exchange-correlation      =  SLA  PW   PBE  PBE ( 1  4  3  4 0 0)

[...]

     atomic species   valence    mass     pseudopotential
[...]
     freq ( 14 - 14) =        546.4  [cm-1]   --> A'
     freq ( 15 - 15) =        735.7  [cm-1]   --> A'

[...]

     freq (  1 -  1) =         83.2  [cm-1]   --> A'
     freq (  2 -  2) =         91.1  [cm-1]   --> A'
     freq (  3 -  3) =        100.3  [cm-1]   --> A''
     freq (  4 -  4) =        164.2  [cm-1]   --> A''
     freq (  5 -  5) =        185.9  [cm-1]   --> A'
     freq (  6 -  6) =        206.4  [cm-1]   --> A''
     freq (  7 -  7) =        258.1  [cm-1]   --> A''
     freq (  8 -  8) =        277.9  [cm-1]   --> A'
     freq (  9 -  9) =        300.1  [cm-1]   --> A'
     freq ( 10 - 10) =        379.2  [cm-1]   --> A''
     freq ( 11 - 11) =        381.1  [cm-1]   --> A'
     freq ( 12 - 12) =        413.2  [cm-1]   --> A''
     freq ( 13 - 13) =        426.4  [cm-1]   --> A'
     freq ( 14 - 14) =        553.7  [cm-1]   --> A'
     freq ( 15 - 15) =        760.4  [cm-1]   --> A'

[...]

     freq (  1 -  1) =         80.5  [cm-1]   --> A'
     freq (  2 -  2) =         95.2  [cm-1]   --> A'
     freq (  3 -  3) =         97.2  [cm-1]   --> A''
     freq (  4 -  4) =        181.2  [cm-1]   --> A'
     freq (  5 -  5) =        213.1  [cm-1]   --> A''
     freq (  6 -  6) =        246.4  [cm-1]   --> A''
     freq (  7 -  7) =        271.4  [cm-1]   --> A'
     freq (  8 -  8) =        317.6  [cm-1]   --> A''
     freq (  9 -  9) =        321.1  [cm-1]   --> A'
     freq ( 10 - 10) =        327.3  [cm-1]   --> A''
     freq ( 11 - 11) =        383.2  [cm-1]   --> A'
     freq ( 12 - 12) =        428.2  [cm-1]   --> A''
     freq ( 13 - 13) =        495.0  [cm-1]   --> A'
     freq ( 14 - 14) =        520.6  [cm-1]   --> A''
     freq ( 15 - 15) =        696.9  [cm-1]   --> A''

[...]

     freq (  1 -  1) =         84.2  [cm-1]   --> A'
     freq (  2 -  2) =         98.2  [cm-1]   --> A''
     freq (  3 -  3) =        100.8  [cm-1]   --> A'
     freq (  4 -  4) =        179.6  [cm-1]   --> A'
     freq (  5 -  5) =        184.3  [cm-1]   --> A''
     freq (  6 -  6) =        207.5  [cm-1]   --> A'
     freq (  7 -  7) =        263.1  [cm-1]   --> A''
     freq (  8 -  8) =        285.3  [cm-1]   --> A''
     freq (  9 -  9) =        358.5  [cm-1]   --> A''
     freq ( 10 - 10) =        366.4  [cm-1]   --> A'
     freq ( 11 - 11) =        382.3  [cm-1]   --> A'
     freq ( 12 - 12) =        416.2  [cm-1]   --> A''
     freq ( 13 - 13) =        475.1  [cm-1]   --> A'
     freq ( 14 - 14) =        551.3  [cm-1]   --> A''
     freq ( 15 - 15) =        736.2  [cm-1]   --> A''

[...]

     number of k points=   216

     Number of k-points >= 100: set verbosity='high' to print them.

[...]

     Number of k-points >= 100: set verbosity='high' to print the bands.

[...]

     Representation     7      1 modes -A'  To be done

[...]

     Representation    15      1 modes -A''  To be done

[...]

     Mode symmetry, C_s (m)     point group:

     freq (  1 -  1) =         94.1  [cm-1]   --> A'
     freq (  2 -  2) =        101.4  [cm-1]   --> A'
     freq (  3 -  3) =        102.8  [cm-1]   --> A''
     freq (  4 -  4) =        158.9  [cm-1]   --> A'
     freq (  5 -  5) =        172.6  [cm-1]   --> A'
     freq (  6 -  6) =        185.6  [cm-1]   --> A''
     freq (  7 -  7) =        268.7  [cm-1]   --> A''
     freq (  8 -  8) =        280.7  [cm-1]   --> A''
     freq (  9 -  9) =        367.2  [cm-1]   --> A'
     freq ( 10 - 10) =        386.6  [cm-1]   --> A''
     freq ( 11 - 11) =        388.8  [cm-1]   --> A''
     freq ( 12 - 12) =        422.1  [cm-1]   --> A'
     freq ( 13 - 13) =        436.9  [cm-1]   --> A'
     freq ( 14 - 14) =        567.8  [cm-1]   --> A''
     freq ( 15 - 15) =        762.8  [cm-1]   --> A''

[...]

     Representation     3      1 modes -A_2  G_2 D_1'  To be done

[...]

     freq (  1 -  1) =         81.2  [cm-1]   --> A_1  G_1 D_1
     freq (  2 -  3) =         97.6  [cm-1]   --> E    G_5 D_5
     freq (  4 -  4) =        126.3  [cm-1]   --> B_1  G_3 D_2
     freq (  5 -  5) =        253.4  [cm-1]   --> B_2  G_4 D_2'
     freq (  6 -  7) =        255.5  [cm-1]   --> E    G_5 D_5
     freq (  8 -  9) =        327.8  [cm-1]   --> E    G_5 D_5
     freq ( 10 - 10) =        390.6  [cm-1]   --> A_2  G_2 D_1'
     freq ( 11 - 11) =        445.2  [cm-1]   --> A_1  G_1 D_1
     freq ( 12 - 13) =        446.6  [cm-1]   --> E    G_5 D_5
     freq ( 14 - 14) =        518.3  [cm-1]   --> B_2  G_4 D_2'
     freq ( 15 - 15) =        715.8  [cm-1]   --> B_2  G_4 D_2'

[...]

      8 Sym.Ops. (no q -> -q+G )

[...]

     Number of q in the star =    1
     List of q in the star:
          1  -0.500000000  -0.500000000   0.241846804
     In addition there is the -q list:
          1   0.500000000   0.500000000  -0.241846804

[...]

     freq (  1 -  1) =         93.2  [cm-1]   --> A_1  G_1 D_1
     freq (  2 -  3) =        104.5  [cm-1]   --> E    G_5 D_5
     freq (  4 -  4) =        111.2  [cm-1]   --> B_1  G_3 D_2
     freq (  5 -  6) =        198.7  [cm-1]   --> E    G_5 D_5
     freq (  7 -  7) =        244.2  [cm-1]   --> B_2  G_4 D_2'
     freq (  8 -  9) =        363.6  [cm-1]   --> E    G_5 D_5
     freq ( 10 - 10) =        382.2  [cm-1]   --> A_2  G_2 D_1'
     freq ( 11 - 11) =        427.9  [cm-1]   --> A_1  G_1 D_1
     freq ( 12 - 13) =        433.7  [cm-1]   --> E    G_5 D_5
     freq ( 14 - 14) =        557.1  [cm-1]   --> B_2  G_4 D_2'
     freq ( 15 - 15) =        745.2  [cm-1]   --> B_2  G_4 D_2'

     Calculation of q =   -0.5000000  -0.5000000  -0.4836936

[...]

   Info: using nr1, nr2, nr3 values from input

     bravais-lattice index     =            6
     lattice parameter (alat)  =       7.4843  a.u.
     unit-cell volume          =     433.3637 (a.u.)^3
     number of atoms/cell      =            5
     number of atomic types    =            3
     number of electrons       =        40.00
     number of Kohn-Sham states=           24
     kinetic-energy cutoff     =      50.0000  Ry
     charge density cutoff     =     400.0000  Ry
     Exchange-correlation      =  SLA  PW   PBE  PBE ( 1  4  3  4 0 0)

[...]

     atomic species   valence    mass     pseudopotential
        O              6.00    15.99000     O ( 1.00)
        Ti            12.00    47.88000     Ti( 1.00)
        Ba            10.00   137.33000     Ba( 1.00)

      8 Sym. Ops. (no inversion) found

[...]

     site n.     atom                  positions (alat units)
         1           Ba  tau(   1) = (   0.0000000   0.0000000   0.0240905  )
         2           Ti  tau(   2) = (   0.5000000   0.5000000   0.4839368  )
         3           O   tau(   3) = (   0.5000000   0.5000000   0.0225908  )
         4           O   tau(   4) = (   0.0000000   0.5000000   0.5288971  )
         5           O   tau(   5) = (   0.5000000   0.0000000   0.5288971  )

     number of k points=    36
                       cart. coord. in units 2pi/alat
        k(    1) = (   0.0833333   0.0833333   0.0806156), wk =   0.0740741
        k(    2) = (  -0.4166667  -0.4166667  -0.4030780), wk =   0.0000000
        k(    3) = (   0.0833333   0.0833333   0.2418468), wk =   0.0740741
        k(    4) = (  -0.4166667  -0.4166667  -0.2418468), wk =   0.0000000
        k(    5) = (   0.0833333   0.0833333   0.4030780), wk =   0.0740741
        k(    6) = (  -0.4166667  -0.4166667  -0.0806156), wk =   0.0000000
        k(    7) = (   0.0833333   0.2500000   0.0806156), wk =   0.1481481
        k(    8) = (  -0.4166667  -0.2500000  -0.4030780), wk =   0.0000000
        k(    9) = (   0.0833333   0.2500000   0.2418468), wk =   0.1481481
        k(   10) = (  -0.4166667  -0.2500000  -0.2418468), wk =   0.0000000
        k(   11) = (   0.0833333   0.2500000   0.4030780), wk =   0.1481481
        k(   12) = (  -0.4166667  -0.2500000  -0.0806156), wk =   0.0000000
        k(   13) = (   0.0833333   0.4166667   0.0806156), wk =   0.1481481
        k(   14) = (  -0.4166667  -0.0833333  -0.4030780), wk =   0.0000000
        k(   15) = (   0.0833333   0.4166667   0.2418468), wk =   0.1481481
        k(   16) = (  -0.4166667  -0.0833333  -0.2418468), wk =   0.0000000
        k(   17) = (   0.0833333   0.4166667   0.4030780), wk =   0.1481481
        k(   18) = (  -0.4166667  -0.0833333  -0.0806156), wk =   0.0000000
        k(   19) = (   0.2500000   0.2500000   0.0806156), wk =   0.0740741
        k(   20) = (  -0.2500000  -0.2500000  -0.4030780), wk =   0.0000000
        k(   21) = (   0.2500000   0.2500000   0.2418468), wk =   0.0740741
        k(   22) = (  -0.2500000  -0.2500000  -0.2418468), wk =   0.0000000
        k(   23) = (   0.2500000   0.2500000   0.4030780), wk =   0.0740741
        k(   24) = (  -0.2500000  -0.2500000  -0.0806156), wk =   0.0000000
        k(   25) = (   0.2500000   0.4166667   0.0806156), wk =   0.1481481
        k(   26) = (  -0.2500000  -0.0833333  -0.4030780), wk =   0.0000000
        k(   27) = (   0.2500000   0.4166667   0.2418468), wk =   0.1481481
        k(   28) = (  -0.2500000  -0.0833333  -0.2418468), wk =   0.0000000
        k(   29) = (   0.2500000   0.4166667   0.4030780), wk =   0.1481481
        k(   30) = (  -0.2500000  -0.0833333  -0.0806156), wk =   0.0000000
        k(   31) = (   0.4166667   0.4166667   0.0806156), wk =   0.0740741
        k(   32) = (  -0.0833333  -0.0833333  -0.4030780), wk =   0.0000000
        k(   33) = (   0.4166667   0.4166667   0.2418468), wk =   0.0740741
        k(   34) = (  -0.0833333  -0.0833333  -0.2418468), wk =   0.0000000
        k(   35) = (   0.4166667   0.4166667   0.4030780), wk =   0.0740741
        k(   36) = (  -0.0833333  -0.0833333  -0.0806156), wk =   0.0000000

     The potential is recalculated from file :
     ./_ph0/bto.save/charge-density.dat

     Starting wfc are   35 atomic wfcs

     Band Structure Calculation
     Davidson diagonalization with overlap

     ethr =  2.50E-11,  avg # of iterations = 19.5

     End of band structure calculation

[...]

          k = 0.4167 0.4167 0.4031 (  2566 PWs)   bands (ev):

[...]

          k =-0.0833-0.0833-0.0806 (  2593 PWs)   bands (ev):

   -46.1255 -22.4521 -22.3616 -22.3614 -14.3617  -6.5624  -5.9602  -5.8304
     0.4186   0.4374   0.5551   7.6706   7.8338   7.8548   8.4568   8.5475
     8.9754   9.3767   9.7448   9.8318  12.4714  12.8012  12.8165  14.8879

     highest occupied, lowest unoccupied level (ev):    10.2344   12.4714

     Writing output data file bto.save

     bravais-lattice index     =            6
     lattice parameter (alat)  =       7.4843  a.u.
     unit-cell volume          =     433.3637 (a.u.)^3
     number of atoms/cell      =            5
     number of atomic types    =            3
     kinetic-energy cut-off    =      50.0000  Ry
     charge density cut-off    =     400.0000  Ry
     convergence threshold     =      1.0E-12
     beta                      =       0.7000
     number of iterations used =            4
     Exchange-correlation      =  SLA  PW   PBE  PBE ( 1  4  3  4 0 0)

     celldm(1)=    7.48430  celldm(2)=    0.00000  celldm(3)=    1.03371
     celldm(4)=    0.00000  celldm(5)=    0.00000  celldm(6)=    0.00000

     crystal axes: (cart. coord. in units of alat)
               a(1) = (  1.0000  0.0000  0.0000 )
               a(2) = (  0.0000  1.0000  0.0000 )
               a(3) = (  0.0000  0.0000  1.0337 )

     reciprocal axes: (cart. coord. in units 2 pi/alat)
               b(1) = (  1.0000  0.0000  0.0000 )
               b(2) = (  0.0000  1.0000  0.0000 )
               b(3) = (  0.0000  0.0000  0.9674 )

     Atoms inside the unit cell:

     Cartesian axes

     site n.  atom      mass           positions (alat units)
        1     Ba 137.3300   tau(    1) = (    0.00000    0.00000    0.02409  )
        2     Ti  47.8800   tau(    2) = (    0.50000    0.50000    0.48394  )
        3     O   15.9900   tau(    3) = (    0.50000    0.50000    0.02259  )
        4     O   15.9900   tau(    4) = (    0.00000    0.50000    0.52890  )
        5     O   15.9900   tau(    5) = (    0.50000    0.00000    0.52890  )

     Computing dynamical matrix for
                    q = (  -0.5000000  -0.5000000  -0.4836936 )

      9 Sym.Ops. (with q -> -q+G )

     G cutoff =  567.5474  (   2091 G-vectors)     FFT grid: ( 48, 48, 50)
     G cutoff =  283.7737  (    741 G-vectors)  smooth grid: ( 36, 36, 36)
     number of k points=    36

     PseudoPot. # 1 for O  read from file:
     ../../PSP_DIR/O.pbe-rrkjus.UPF
     MD5 check sum: 390ba29e75625707450f3bd3f0eb6be9
     Pseudo is Ultrasoft, Zval =  6.0
     Generated by new atomic code, or converted to UPF format
     Using radial grid of 1269 points,  4 beta functions with:
                l(1) =   0
                l(2) =   0
                l(3) =   1
                l(4) =   1
     Q(r) pseudized with 0 coefficients

     PseudoPot. # 2 for Ti read from file:
     ../../PSP_DIR/Ti.pbe-sp-van_ak.UPF
     MD5 check sum: 8e4df49b7f0d34bbd5052bf3f5ea0213
     Pseudo is Ultrasoft, Zval = 12.0
     Generated by new atomic code, or converted to UPF format
     Using radial grid of  851 points,  6 beta functions with:
                l(1) =   0
                l(2) =   0
                l(3) =   1
                l(4) =   1
                l(5) =   2
                l(6) =   2
     Q(r) pseudized with  8 coefficients,  rinner =    1.000   1.000   1.000
                                                       1.000   1.000

     PseudoPot. # 3 for Ba read from file:
     ../../PSP_DIR/Ba.pbe-nsp-van.UPF
     MD5 check sum: a011de417d3466d8e94df216395bc359
     Pseudo is Ultrasoft + core correction, Zval = 10.0
     Generated by new atomic code, or converted to UPF format
     Using radial grid of  907 points,  6 beta functions with:
                l(1) =   0
                l(2) =   0
                l(3) =   1
                l(4) =   1
                l(5) =   2
                l(6) =   2
     Q(r) pseudized with  6 coefficients,  rinner =    1.200   1.200   1.200
                                                       1.200   1.200

[...]

     Atomic displacements:
     There are  11 irreducible representations

[...]

     Representation     4      1 modes -B_1  G_3 D_2  To be done

[...]

     Representation     7      1 modes -B_2  G_4 D_2'  To be done

[...]

     Representation    11      2 modes -E    G_5 D_5  To be done

     Alpha used in Ewald sum =   2.8000

[...]

     Representation #  7 mode #   7

[...]

     Representation # 11 modes #  14 15

     Self-consistent Calculation

[...]

      thresh= 3.633E-07 alpha_mix =  0.700 |ddv_scf|^2 =  3.567E-13

     End of self-consistent calculation

     Convergence has been achieved

     Number of q in the star =    1
     List of q in the star:
          1  -0.500000000  -0.500000000  -0.483693608

     Diagonalizing the dynamical matrix

     q = (   -0.500000000  -0.500000000  -0.483693608 )

     freq (    1) =       2.776983 [THz] =      92.630184 [cm-1]
     freq (    2) =       3.075515 [THz] =     102.588122 [cm-1]
     freq (    3) =       3.325219 [THz] =     110.917376 [cm-1]
     freq (    4) =       3.325219 [THz] =     110.917376 [cm-1]
     freq (    5) =       4.555338 [THz] =     151.949722 [cm-1]
     freq (    6) =       4.555338 [THz] =     151.949722 [cm-1]
     freq (    7) =       7.630209 [THz] =     254.516362 [cm-1]
     freq (    8) =      11.194884 [THz] =     373.421135 [cm-1]
     freq (    9) =      11.894797 [THz] =     396.767728 [cm-1]
     freq (   10) =      11.894797 [THz] =     396.767728 [cm-1]
     freq (   11) =      12.207006 [THz] =     407.181890 [cm-1]
     freq (   12) =      12.327109 [THz] =     411.188080 [cm-1]
     freq (   13) =      12.327109 [THz] =     411.188080 [cm-1]
     freq (   14) =      17.362731 [THz] =     579.158358 [cm-1]
     freq (   15) =      22.966158 [THz] =     766.068557 [cm-1]

     Mode symmetry, C_4v (4mm)  point group:

     freq (  1 -  1) =         92.6  [cm-1]   --> B_1  G_3 D_2
     freq (  2 -  2) =        102.6  [cm-1]   --> A_1  G_1 D_1
     freq (  3 -  4) =        110.9  [cm-1]   --> E    G_5 D_5
     freq (  5 -  6) =        151.9  [cm-1]   --> E    G_5 D_5
     freq (  7 -  7) =        254.5  [cm-1]   --> B_2  G_4 D_2'
     freq (  8 -  8) =        373.4  [cm-1]   --> A_2  G_2 D_1'
     freq (  9 - 10) =        396.8  [cm-1]   --> E    G_5 D_5
     freq ( 11 - 11) =        407.2  [cm-1]   --> A_1  G_1 D_1
     freq ( 12 - 13) =        411.2  [cm-1]   --> E    G_5 D_5
     freq ( 14 - 14) =        579.2  [cm-1]   --> B_2  G_4 D_2'
     freq ( 15 - 15) =        766.1  [cm-1]   --> B_2  G_4 D_2'

     General routines

     Parallel routines

     INITIALIZATION:

     DYNAMICAL MATRIX:

      General routines

   This run was terminated on:  14:11: 5  10Jan2018

   JOB DONE.