     Program PWSCF v.6.1 (svn rev. 13369) starts on  6Jan2018 at 14: 6:47

     Current dimensions of program PWSCF are:
     Max number of different atomic species (ntypx) = 10
     Max number of k-points (npk) =  40000
     Max angular momentum in pseudopotentials (lmaxx) =  3

     Subspace diagonalization in iterative solution of the eigenvalue problem:
     a serial algorithm will be used

     Title:
     cubic BaTiO3 at 7.40 lattice parameter. xc=PZ

     bravais-lattice index     =            1
     lattice parameter (alat)  =       7.4000  a.u.
     unit-cell volume          =     405.2240 (a.u.)^3
     number of atoms/cell      =            5
     number of atomic types    =            3
     number of electrons       =        40.00
     number of Kohn-Sham states=           24
     kinetic-energy cutoff     =     100.0000  Ry
     charge density cutoff     =     800.0000  Ry
     convergence threshold     =      1.0E-12
     mixing beta               =       0.6000
     number of iterations used =            8  plain     mixing
     Exchange-correlation      = SLA-PZ-NOGX-NOGC ( 1  1  0  0 0 0)
     nstep                     =           50

     celldm(1)=   7.400000  celldm(2)=   0.000000  celldm(3)=   0.000000
     celldm(4)=   0.000000  celldm(5)=   0.000000  celldm(6)=   0.000000

     crystal axes: (cart. coord. in units of alat)
               a(1) = (   1.000000   0.000000   0.000000 )
               a(2) = (   0.000000   1.000000   0.000000 )
               a(3) = (   0.000000   0.000000   1.000000 )

     reciprocal axes: (cart. coord. in units 2 pi/alat)
               b(1) = (  1.000000  0.000000  0.000000 )
               b(2) = (  0.000000  1.000000  0.000000 )
               b(3) = (  0.000000  0.000000  1.000000 )

     PseudoPot. # 1 for O  read from file:
     ../../PSP_DIR/O.pz-van_ak.UPF
     MD5 check sum: d814fcb982dd9af4fc6452aae6bb9318
     Pseudo is Ultrasoft, Zval =  6.0
     Generated by new atomic code, or converted to UPF format
     Using radial grid of  737 points,  4 beta functions with:
                l(1) =   0
                l(2) =   0
                l(3) =   1
                l(4) =   1
     Q(r) pseudized with  8 coefficients,  rinner =    0.800   0.800   0.800

     PseudoPot. # 2 for Ti read from file:
     ../../PSP_DIR/Ti.pz-sp-van_ak.UPF
     MD5 check sum: 545d0e6e05332b8871a8093f427cb0ca
     Pseudo is Ultrasoft, Zval = 12.0
     Generated by new atomic code, or converted to UPF format
     Using radial grid of  851 points,  6 beta functions with:
                l(1) =   0
                l(2) =   0
                l(3) =   1
                l(4) =   1
                l(5) =   2
                l(6) =   2
     Q(r) pseudized with  8 coefficients,  rinner =    1.000   1.000   1.000
                                                       1.000   1.000

     PseudoPot. # 3 for Ba read from file:
     ../../PSP_DIR/Ba.pz-sp-hgh.UPF
     MD5 check sum: 155c4e4bbe33bd45901c985a874b3acf
     Pseudo is Norm-conserving, Zval = 10.0
     Generated in analytical, separable form
     Using radial grid of 1251 points,  6 beta functions with:
                l(1) =   0
                l(2) =   0
                l(3) =   1
                l(4) =   1
                l(5) =   2
                l(6) =   3

     atomic species   valence    mass     pseudopotential
        O              6.00    15.99000     O ( 1.00)
        Ti            12.00    47.88000     Ti( 1.00)
        Ba            10.00   137.33000     Ba( 1.00)

      8 Sym. Ops. (no inversion) found

   Cartesian axes

     site n.     atom                  positions (alat units)
         1           Ba  tau(   1) = (   0.0000000   0.0000000   0.0000000  )
         2           Ti  tau(   2) = (   0.4900000   0.5000000   0.5000000  )
         3           O   tau(   3) = (   0.0000000   0.5000000   0.5000000  )
         4           O   tau(   4) = (   0.5000000   0.0000000   0.5000000  )
         5           O   tau(   5) = (   0.5000000   0.5000000   0.0000000  )

     number of k points=    18
                       cart. coord. in units 2pi/alat
        k(    1) = (   0.0833333   0.0833333   0.0833333), wk =   0.0740741
        k(    2) = (   0.0833333   0.0833333   0.2500000), wk =   0.1481481
        k(    3) = (   0.0833333   0.0833333   0.4166667), wk =   0.1481481
        k(    4) = (   0.0833333   0.2500000   0.2500000), wk =   0.0740741
        k(    5) = (   0.0833333   0.2500000   0.4166667), wk =   0.1481481
        k(    6) = (   0.0833333   0.4166667   0.4166667), wk =   0.0740741
        k(    7) = (   0.2500000   0.2500000   0.2500000), wk =   0.0740741
        k(    8) = (   0.2500000   0.2500000   0.4166667), wk =   0.1481481
        k(    9) = (   0.2500000   0.4166667   0.4166667), wk =   0.0740741
        k(   10) = (   0.4166667   0.4166667   0.4166667), wk =   0.0740741
        k(   11) = (   0.2500000  -0.0833333   0.0833333), wk =   0.0740741
        k(   12) = (   0.4166667  -0.0833333   0.0833333), wk =   0.0740741
        k(   13) = (   0.2500000  -0.2500000   0.0833333), wk =   0.1481481
        k(   14) = (   0.4166667  -0.2500000   0.0833333), wk =   0.1481481
        k(   15) = (   0.2500000   0.4166667   0.0833333), wk =   0.1481481
        k(   16) = (   0.4166667  -0.4166667   0.0833333), wk =   0.1481481
        k(   17) = (   0.4166667  -0.2500000   0.2500000), wk =   0.0740741
        k(   18) = (   0.4166667  -0.4166667   0.2500000), wk =   0.1481481

     Initial potential from superposition of free atoms

     starting charge   28.99996, renormalised to   40.00000
     Starting wfc are   22 randomized atomic wfcs +    2 random wfc

     Self-consistent Calculation

     iteration #  1     ecut=   100.00 Ry     beta=0.60
     Davidson diagonalization with overlap
     ethr =  1.00E-02,  avg # of iterations = 12.0

     total energy              =      56.13519052 Ry
     Harris-Foulkes estimate   =    -388.55371478 Ry
     estimated scf accuracy    <     586.79087789 Ry

[...]

     negative rho (up, down):  2.088E-07 0.000E+00

          k = 0.0833 0.0833 0.0833     band energies (ev):

   -55.4377 -31.9059 -31.9053 -31.4897 -10.5566  -9.7720  -9.3515  -1.6347
     2.6903   2.8181   3.1292   3.5438   3.7388   3.9172   5.2383   5.3244
     5.9546   6.1182   6.3157   6.4465   6.7000   6.9939  12.0747  12.4838

[...]

     highest occupied, lowest unoccupied level (ev):     7.6110    6.7000

!    total energy              =    -266.14144850 Ry
     Harris-Foulkes estimate   =    -269.77975643 Ry
     estimated scf accuracy    <      38.25271006 Ry

     The total energy is the sum of the following terms:

     one-electron contribution =    -111.80418353 Ry
     hartree contribution      =      51.84474181 Ry
     xc contribution           =     -42.59763028 Ry
     ewald contribution        =    -211.89562325 Ry
     scf correction            =      48.31124675 Ry

[...]

     negative rho (up, down):  1.532E-07 0.000E+00

[...]

     End of self-consistent calculation

          k = 0.0833 0.0833 0.0833 (  6850 PWs)   bands (ev):

[...]

     one-electron contribution =     -68.24388296 Ry
     hartree contribution      =      58.13942211 Ry
     xc contribution           =     -42.80599598 Ry
     ewald contribution        =    -211.89562325 Ry

     convergence has been achieved in  33 iterations

     Forces acting on atoms (cartesian axes, Ry/au):

     atom    1 type  3   force =    -0.00599330    0.00000000    0.00000000
     atom    2 type  2   force =     0.00319677    0.00000000    0.00000000
     atom    3 type  1   force =     0.00386992    0.00000000    0.00000000
     atom    4 type  1   force =    -0.00053670    0.00000000    0.00000000
     atom    5 type  1   force =    -0.00053670    0.00000000    0.00000000

     Total force =     0.007854     Total SCF correction =     0.000001

     Computing stress (Cartesian axis) and pressure

          total   stress  (Ry/bohr**3)                   (kbar)     P=   29.73
   0.00021272   0.00000000   0.00000000         31.29      0.00      0.00
   0.00000000   0.00019680   0.00000000          0.00     28.95      0.00
   0.00000000   0.00000000   0.00019680          0.00      0.00     28.95

     BFGS Geometry Optimization

     number of scf cycles    =   1
     number of bfgs steps    =   0

     enthalpy new            =    -264.8060800668 Ry

     new trust radius        =       0.0214108138 bohr
     new conv_thr            =            1.0E-12 Ry

     new unit-cell volume =    411.39742 a.u.^3 (    60.96281 Ang^3 )
     density =      6.35149 g/cm^3

CELL_PARAMETERS (alat=  7.40000000)
   1.005318089   0.000000000   0.000000000
   0.000000000   1.004919922   0.000000000
   0.000000000   0.000000000   1.004919922

ATOMIC_POSITIONS (crystal)
Ba      -0.000809906   0.000000000   0.000000000
Ti       0.490431997   0.500000000   0.500000000
O        0.000522962   0.500000000   0.500000000
O        0.499927474   0.000000000   0.500000000
O        0.499927474   0.500000000   0.000000000

     Writing output data file bto.save
     NEW-OLD atomic charge density approx. for the potential

     negative rho (up, down):  1.478E-08 0.000E+00
     extrapolated charge   40.43517, renormalised to   40.00000

[...]

     iteration #  1     ecut=   100.00 Ry     beta=0.60
     Davidson diagonalization with overlap
     c_bands:  1 eigenvalues not converged
     ethr =  1.00E-06,  avg # of iterations = 11.4

[...]

     enthalpy old            =    -264.8060800668 Ry
     enthalpy new            =    -264.8067407542 Ry

     CASE: enthalpy_new < enthalpy_old

[...]

     Writing output data file bto.save
     NEW-OLD atomic charge density approx. for the potential
     extrapolated charge   39.99922, renormalised to   40.00000

[...]

     number of scf cycles    =  14
     number of bfgs steps    =  13

     enthalpy old            =    -264.8070622662 Ry
     enthalpy new            =    -264.8070682465 Ry

     CASE: enthalpy_new < enthalpy_old

     new trust radius        =       0.0039998551 bohr
     new conv_thr            =            1.0E-14 Ry

     new unit-cell volume =    412.83565 a.u.^3 (    61.17593 Ang^3 )
     density =      6.32936 g/cm^3

[...]

ATOMIC_POSITIONS (crystal)
Ba      -0.008643659   0.000000000   0.000000000
Ti       0.480022596   0.500000000   0.500000000
O        0.009924639   0.500000000   0.500000000
O        0.504348212   0.000000000   0.500000000
O        0.504348212   0.500000000   0.000000000

     Writing output data file bto.save
     NEW-OLD atomic charge density approx. for the potential
     extrapolated charge   39.99566, renormalised to   40.00000

[...]

     bfgs converged in  15 scf cycles and  14 bfgs steps
     (criteria: energy <  1.0E-04 Ry, force <  1.0E-03Ry/Bohr, cell <  5.0E-01kbar)

     End of BFGS Geometry Optimization

     Final enthalpy =    -264.8070725428 Ry
Begin final coordinates
     new unit-cell volume =    412.83565 a.u.^3 (    61.17593 Ang^3 )
     density =      6.32936 g/cm^3

CELL_PARAMETERS (alat=  7.40000000)
   1.012742126   0.000000000   0.000000000
   0.000000000   1.002978394   0.000000000
   0.000000000   0.000000000   1.002978394

ATOMIC_POSITIONS (crystal)
Ba      -0.008643659   0.000000000   0.000000000
Ti       0.480022596   0.500000000   0.500000000
O        0.009924639   0.500000000   0.500000000
O        0.504348212   0.000000000   0.500000000
O        0.504348212   0.500000000   0.000000000
End final coordinates

     A final scf calculation at the relaxed structure.
     The G-vectors are recalculated for the final unit cell
     Results may differ from those at the preceding step.

     Title:
     cubic BaTiO3 at 7.40 lattice parameter. xc=PZ

     bravais-lattice index     =            1
     lattice parameter (alat)  =       7.4000  a.u.
     unit-cell volume          =     412.8356 (a.u.)^3
     number of atoms/cell      =            5
     number of atomic types    =            3
     number of electrons       =        40.00
     number of Kohn-Sham states=           24
     kinetic-energy cutoff     =     100.0000  Ry
     charge density cutoff     =     800.0000  Ry
     convergence threshold     =      1.0E-14
     mixing beta               =       0.6000
     number of iterations used =            8  plain     mixing
     Exchange-correlation      = SLA-PZ-NOGX-NOGC ( 1  1  0  0 0 0)

     celldm(1)=   7.400000  celldm(2)=   0.000000  celldm(3)=   0.000000
     celldm(4)=   0.000000  celldm(5)=   0.000000  celldm(6)=   0.000000

     crystal axes: (cart. coord. in units of alat)
               a(1) = (   1.012742   0.000000   0.000000 )
               a(2) = (   0.000000   1.002978   0.000000 )
               a(3) = (   0.000000   0.000000   1.002978 )

     reciprocal axes: (cart. coord. in units 2 pi/alat)
               b(1) = (  0.987418  0.000000  0.000000 )
               b(2) = (  0.000000  0.997030  0.000000 )
               b(3) = (  0.000000  0.000000  0.997030 )

     PseudoPot. # 1 for O  read from file:
     ../../PSP_DIR/O.pz-van_ak.UPF
     MD5 check sum: d814fcb982dd9af4fc6452aae6bb9318
     Pseudo is Ultrasoft, Zval =  6.0
     Generated by new atomic code, or converted to UPF format
     Using radial grid of  737 points,  4 beta functions with:
                l(1) =   0
                l(2) =   0
                l(3) =   1
                l(4) =   1
     Q(r) pseudized with  8 coefficients,  rinner =    0.800   0.800   0.800

     PseudoPot. # 2 for Ti read from file:
     ../../PSP_DIR/Ti.pz-sp-van_ak.UPF
     MD5 check sum: 545d0e6e05332b8871a8093f427cb0ca
     Pseudo is Ultrasoft, Zval = 12.0
     Generated by new atomic code, or converted to UPF format
     Using radial grid of  851 points,  6 beta functions with:
                l(1) =   0
                l(2) =   0
                l(3) =   1
                l(4) =   1
                l(5) =   2
                l(6) =   2
     Q(r) pseudized with  8 coefficients,  rinner =    1.000   1.000   1.000
                                                       1.000   1.000

     PseudoPot. # 3 for Ba read from file:
     ../../PSP_DIR/Ba.pz-sp-hgh.UPF
     MD5 check sum: 155c4e4bbe33bd45901c985a874b3acf
     Pseudo is Norm-conserving, Zval = 10.0
     Generated in analytical, separable form
     Using radial grid of 1251 points,  6 beta functions with:
                l(1) =   0
                l(2) =   0
                l(3) =   1
                l(4) =   1
                l(5) =   2
                l(6) =   3

     atomic species   valence    mass     pseudopotential
        O              6.00    15.99000     O ( 1.00)
        Ti            12.00    47.88000     Ti( 1.00)
        Ba            10.00   137.33000     Ba( 1.00)

      8 Sym. Ops. (no inversion) found

   Cartesian axes

     site n.     atom                  positions (alat units)
         1           Ba  tau(   1) = (  -0.0087538   0.0000000   0.0000000  )
         2           Ti  tau(   2) = (   0.4861391   0.5014892   0.5014892  )
         3           O   tau(   3) = (   0.0100511   0.5014892   0.5014892  )
         4           O   tau(   4) = (   0.5107747   0.0000000   0.5014892  )
         5           O   tau(   5) = (   0.5107747   0.5014892   0.0000000  )

     number of k points=    18
                       cart. coord. in units 2pi/alat
        k(    1) = (   0.0822848   0.0830859   0.0830859), wk =   0.0740741
        k(    2) = (   0.0822848   0.0830859   0.2492576), wk =   0.1481481
        k(    3) = (   0.0822848   0.0830859   0.4154294), wk =   0.1481481
        k(    4) = (   0.0822848   0.2492576   0.2492576), wk =   0.0740741
        k(    5) = (   0.0822848   0.2492576   0.4154294), wk =   0.1481481
        k(    6) = (   0.0822848   0.4154294   0.4154294), wk =   0.0740741
        k(    7) = (   0.2468545   0.2492576   0.2492576), wk =   0.0740741
        k(    8) = (   0.2468545   0.2492576   0.4154294), wk =   0.1481481
        k(    9) = (   0.2468545   0.4154294   0.4154294), wk =   0.0740741
        k(   10) = (   0.4114242   0.4154294   0.4154294), wk =   0.0740741
        k(   11) = (   0.2468545  -0.0830859   0.0830859), wk =   0.0740741
        k(   12) = (   0.4114242  -0.0830859   0.0830859), wk =   0.0740741
        k(   13) = (   0.2468545  -0.2492576   0.0830859), wk =   0.1481481
        k(   14) = (   0.4114242  -0.2492576   0.0830859), wk =   0.1481481
        k(   15) = (   0.2468545   0.4154294   0.0830859), wk =   0.1481481
        k(   16) = (   0.4114242  -0.4154294   0.0830859), wk =   0.1481481
        k(   17) = (   0.4114242  -0.2492576   0.2492576), wk =   0.0740741
        k(   18) = (   0.4114242  -0.4154294   0.2492576), wk =   0.1481481

     Initial potential from superposition of free atoms

     starting charge   28.99996, renormalised to   40.00000
     Starting wfc are   22 randomized atomic wfcs +    2 random wfc

     Writing output data file bto.save

     Self-consistent Calculation

     iteration #  1     ecut=   100.00 Ry     beta=0.60
     Davidson diagonalization with overlap
     c_bands:  1 eigenvalues not converged
     c_bands:  2 eigenvalues not converged
     c_bands:  2 eigenvalues not converged
     c_bands:  2 eigenvalues not converged
     c_bands:  1 eigenvalues not converged
     c_bands:  1 eigenvalues not converged
     c_bands:  2 eigenvalues not converged
     c_bands:  2 eigenvalues not converged
     c_bands:  1 eigenvalues not converged
     c_bands:  1 eigenvalues not converged
     c_bands:  1 eigenvalues not converged
     c_bands:  1 eigenvalues not converged
     ethr =  1.00E-06,  avg # of iterations = 19.8

[...]

          k = 0.4114-0.4154 0.2493     band energies (ev):

[...]

     one-electron contribution =     -70.43405815 Ry
     hartree contribution      =      58.78702597 Ry
     xc contribution           =     -42.75055211 Ry
     ewald contribution        =    -210.40964073 Ry
     scf correction            =       0.00002420 Ry

[...]

     total energy              =    -264.80720082 Ry
     Harris-Foulkes estimate   =    -264.80720082 Ry
     estimated scf accuracy    <          1.0E-14 Ry

     iteration # 35     ecut=   100.00 Ry     beta=0.60
     Davidson diagonalization with overlap
     ethr =  1.00E-13,  avg # of iterations =  1.0

     End of self-consistent calculation

[...]

          k = 0.4114-0.4154 0.2493 (  6977 PWs)   bands (ev):

   -44.9706 -21.6454 -21.6176 -21.5866 -13.7872  -5.4286  -5.1372  -5.0602
     0.4463   0.5136   0.8414   6.3915   6.8287   7.3519   7.6129   8.1609
     8.2644  10.0039  10.1360  10.4736  14.7050  14.7394  14.9392  17.4613

     highest occupied, lowest unoccupied level (ev):    10.5800   12.8421

!    total energy              =    -264.80720082 Ry
     Harris-Foulkes estimate   =    -264.80720082 Ry
     estimated scf accuracy    <          2.8E-15 Ry

     The total energy is the sum of the following terms:

     one-electron contribution =     -70.43403808 Ry
     hartree contribution      =      58.78702976 Ry
     xc contribution           =     -42.75055177 Ry
     ewald contribution        =    -210.40964073 Ry

     convergence has been achieved in  35 iterations

     Forces acting on atoms (cartesian axes, Ry/au):

     atom    1 type  3   force =     0.00006196    0.00000000    0.00000000
     atom    2 type  2   force =     0.00002917    0.00000000    0.00000000
     atom    3 type  1   force =     0.00067031    0.00000000    0.00000000
     atom    4 type  1   force =    -0.00038072    0.00000000    0.00000000
     atom    5 type  1   force =    -0.00038072    0.00000000    0.00000000

     Total force =     0.000862     Total SCF correction =     0.000000

     Computing stress (Cartesian axis) and pressure

          total   stress  (Ry/bohr**3)                   (kbar)     P=    0.71
   0.00000511   0.00000000   0.00000000          0.75      0.00      0.00
   0.00000000   0.00000472   0.00000000          0.00      0.69      0.00
   0.00000000   0.00000000   0.00000472          0.00      0.00      0.69

     Writing output data file bto.save

     General routines

     Parallel routines

   This run was terminated on:  14: 8:55   6Jan2018

   JOB DONE.