     Program PWSCF v.6.1 (svn rev. 13369) starts on  6Jan2018 at 14: 4:18

     Current dimensions of program PWSCF are:
     Max number of different atomic species (ntypx) = 10
     Max number of k-points (npk) =  40000
     Max angular momentum in pseudopotentials (lmaxx) =  3
               file O.pbe-rrkjus.UPF: wavefunction(s)  2S renormalized

     Subspace diagonalization in iterative solution of the eigenvalue problem:
     a serial algorithm will be used

     Title:
     cubic BaTiO3 at 7.40 lattice parameter. xc=PBE

     bravais-lattice index     =            1
     lattice parameter (alat)  =       7.4000  a.u.
     unit-cell volume          =     405.2240 (a.u.)^3
     number of atoms/cell      =            5
     number of atomic types    =            3
     number of electrons       =        40.00
     number of Kohn-Sham states=           24
     kinetic-energy cutoff     =     100.0000  Ry
     charge density cutoff     =     800.0000  Ry
     convergence threshold     =      1.0E-12
     mixing beta               =       0.6000
     number of iterations used =            8  plain     mixing
     Exchange-correlation      =  SLA  PW   PBE  PBE ( 1  4  3  4 0 0)
     nstep                     =           50

     celldm(1)=   7.400000  celldm(2)=   0.000000  celldm(3)=   0.000000
     celldm(4)=   0.000000  celldm(5)=   0.000000  celldm(6)=   0.000000

     crystal axes: (cart. coord. in units of alat)
               a(1) = (   1.000000   0.000000   0.000000 )
               a(2) = (   0.000000   1.000000   0.000000 )
               a(3) = (   0.000000   0.000000   1.000000 )

     reciprocal axes: (cart. coord. in units 2 pi/alat)
               b(1) = (  1.000000  0.000000  0.000000 )
               b(2) = (  0.000000  1.000000  0.000000 )
               b(3) = (  0.000000  0.000000  1.000000 )

     PseudoPot. # 1 for O  read from file:
     ../../PSP_DIR/O.pbe-rrkjus.UPF
     MD5 check sum: 390ba29e75625707450f3bd3f0eb6be9
     Pseudo is Ultrasoft, Zval =  6.0
     Generated by new atomic code, or converted to UPF format
     Using radial grid of 1269 points,  4 beta functions with:
                l(1) =   0
                l(2) =   0
                l(3) =   1
                l(4) =   1
     Q(r) pseudized with 0 coefficients

     PseudoPot. # 2 for Ti read from file:
     ../../PSP_DIR/Ti.pbe-sp-van_ak.UPF
     MD5 check sum: 8e4df49b7f0d34bbd5052bf3f5ea0213
     Pseudo is Ultrasoft, Zval = 12.0
     Generated by new atomic code, or converted to UPF format
     Using radial grid of  851 points,  6 beta functions with:
                l(1) =   0
                l(2) =   0
                l(3) =   1
                l(4) =   1
                l(5) =   2
                l(6) =   2
     Q(r) pseudized with  8 coefficients,  rinner =    1.000   1.000   1.000
                                                       1.000   1.000

     PseudoPot. # 3 for Ba read from file:
     ../../PSP_DIR/Ba.pbe-nsp-van.UPF
     MD5 check sum: a011de417d3466d8e94df216395bc359
     Pseudo is Ultrasoft + core correction, Zval = 10.0
     Generated by new atomic code, or converted to UPF format
     Using radial grid of  907 points,  6 beta functions with:
                l(1) =   0
                l(2) =   0
                l(3) =   1
                l(4) =   1
                l(5) =   2
                l(6) =   2
     Q(r) pseudized with  6 coefficients,  rinner =    1.200   1.200   1.200
                                                       1.200   1.200

     atomic species   valence    mass     pseudopotential
        O              6.00    15.99000     O ( 1.00)
        Ti            12.00    47.88000     Ti( 1.00)
        Ba            10.00   137.33000     Ba( 1.00)

      8 Sym. Ops. (no inversion) found

   Cartesian axes

     site n.     atom                  positions (alat units)
         1           Ba  tau(   1) = (   0.0000000   0.0000000   0.0000000  )
         2           Ti  tau(   2) = (   0.4900000   0.5000000   0.5000000  )
         3           O   tau(   3) = (   0.0000000   0.5000000   0.5000000  )
         4           O   tau(   4) = (   0.5000000   0.0000000   0.5000000  )
         5           O   tau(   5) = (   0.5000000   0.5000000   0.0000000  )

     number of k points=    18
                       cart. coord. in units 2pi/alat
        k(    1) = (   0.0833333   0.0833333   0.0833333), wk =   0.0740741
        k(    2) = (   0.0833333   0.0833333   0.2500000), wk =   0.1481481
        k(    3) = (   0.0833333   0.0833333   0.4166667), wk =   0.1481481
        k(    4) = (   0.0833333   0.2500000   0.2500000), wk =   0.0740741
        k(    5) = (   0.0833333   0.2500000   0.4166667), wk =   0.1481481
        k(    6) = (   0.0833333   0.4166667   0.4166667), wk =   0.0740741
        k(    7) = (   0.2500000   0.2500000   0.2500000), wk =   0.0740741
        k(    8) = (   0.2500000   0.2500000   0.4166667), wk =   0.1481481
        k(    9) = (   0.2500000   0.4166667   0.4166667), wk =   0.0740741
        k(   10) = (   0.4166667   0.4166667   0.4166667), wk =   0.0740741
        k(   11) = (   0.2500000  -0.0833333   0.0833333), wk =   0.0740741
        k(   12) = (   0.4166667  -0.0833333   0.0833333), wk =   0.0740741
        k(   13) = (   0.2500000  -0.2500000   0.0833333), wk =   0.1481481
        k(   14) = (   0.4166667  -0.2500000   0.0833333), wk =   0.1481481
        k(   15) = (   0.2500000   0.4166667   0.0833333), wk =   0.1481481
        k(   16) = (   0.4166667  -0.4166667   0.0833333), wk =   0.1481481
        k(   17) = (   0.4166667  -0.2500000   0.2500000), wk =   0.0740741
        k(   18) = (   0.4166667  -0.4166667   0.2500000), wk =   0.1481481

     Initial potential from superposition of free atoms

     starting charge   38.98495, renormalised to   40.00000
     Starting wfc are   35 randomized atomic wfcs

     Self-consistent Calculation

     iteration #  1     ecut=   100.00 Ry     beta=0.60
     Davidson diagonalization with overlap
     ethr =  1.00E-02,  avg # of iterations =  2.6

     total energy              =    -302.90937152 Ry
     Harris-Foulkes estimate   =    -303.47691219 Ry
     estimated scf accuracy    <       0.79306793 Ry

[...]

          k = 0.0833 0.0833 0.0833     band energies (ev):

   -45.0967 -21.3780 -21.3733 -21.3730 -13.1543  -5.7379  -5.0957  -5.0856
     1.6083   1.6097   1.7599   8.6198   8.8273   8.8285   9.5106   9.5165
     9.8976  10.5921  10.9192  10.9254  13.4003  13.4519  13.4633  15.9549

[...]

     highest occupied, lowest unoccupied level (ev):    11.0312   13.4003

!    total energy              =    -303.31171114 Ry
     Harris-Foulkes estimate   =    -303.31171120 Ry
     estimated scf accuracy    <       0.00000013 Ry

     The total energy is the sum of the following terms:

     one-electron contribution =     -65.00368514 Ry
     hartree contribution      =      57.94107226 Ry
     xc contribution           =     -84.35531996 Ry
     ewald contribution        =    -211.89562325 Ry
     scf correction            =       0.00184494 Ry

[...]

     End of self-consistent calculation

          k = 0.0833 0.0833 0.0833 (  6850 PWs)   bands (ev):

[...]

     one-electron contribution =     -65.00169750 Ry
     hartree contribution      =      57.94092042 Ry
     xc contribution           =     -84.35531085 Ry
     ewald contribution        =    -211.89562325 Ry

     convergence has been achieved in  15 iterations

     Forces acting on atoms (cartesian axes, Ry/au):

     atom    1 type  3   force =    -0.00574505    0.00000000    0.00000000
     atom    2 type  2   force =     0.00385115    0.00000000    0.00000000
     atom    3 type  1   force =     0.00260488    0.00000000    0.00000000
     atom    4 type  1   force =    -0.00035549    0.00000000    0.00000000
     atom    5 type  1   force =    -0.00035549    0.00000000    0.00000000

     Total force =     0.007408     Total SCF correction =     0.000000

     Computing stress (Cartesian axis) and pressure

          total   stress  (Ry/bohr**3)                   (kbar)     P=   91.16
   0.00063018   0.00000000   0.00000000         92.70      0.00      0.00
   0.00000000   0.00061446   0.00000000          0.00     90.39      0.00
   0.00000000   0.00000000   0.00061446          0.00      0.00     90.39

     BFGS Geometry Optimization

     number of scf cycles    =   1
     number of bfgs steps    =   0

     enthalpy new            =    -303.3117111732 Ry

     new trust radius        =       0.0634279572 bohr
     new conv_thr            =            1.0E-12 Ry

     new unit-cell volume =    424.35098 a.u.^3 (    62.88233 Ang^3 )
     density =      6.15760 g/cm^3

CELL_PARAMETERS (alat=  7.40000000)
   1.015754447   0.000000000   0.000000000
   0.000000000   1.015361423   0.000000000
   0.000000000   0.000000000   1.015361423

ATOMIC_POSITIONS (crystal)
Ba      -0.000776358   0.000000000   0.000000000
Ti       0.490520425   0.500000000   0.500000000
O        0.000352011   0.500000000   0.500000000
O        0.499951961   0.000000000   0.500000000
O        0.499951961   0.500000000   0.000000000

     Writing output data file bto.save
     NEW-OLD atomic charge density approx. for the potential
     extrapolated charge   41.75719, renormalised to   40.00000

[...]

     enthalpy old            =    -303.3117111732 Ry
     enthalpy new            =    -303.3178960652 Ry

     CASE: enthalpy_new < enthalpy_old

[...]

     number of scf cycles    =  13
     number of bfgs steps    =  12

     enthalpy old            =    -303.3196731731 Ry
     enthalpy new            =    -303.3196775881 Ry

     CASE: enthalpy_new < enthalpy_old

     new trust radius        =       0.0020468522 bohr
     new conv_thr            =            1.0E-14 Ry

     new unit-cell volume =    433.36371 a.u.^3 (    64.21788 Ang^3 )
     density =      6.02954 g/cm^3

[...]

ATOMIC_POSITIONS (crystal)
Ba      -0.023304873   0.000000000   0.000000000
Ti       0.468154265   0.500000000   0.500000000
O        0.021854084   0.500000000   0.500000000
O        0.511648261   0.000000000   0.500000000
O        0.511648261   0.500000000   0.000000000

     Writing output data file bto.save
     NEW-OLD atomic charge density approx. for the potential
     extrapolated charge   40.01381, renormalised to   40.00000

[...]

     Threshold (ethr) on eigenvalues was too large:
     Diagonalizing with lowered threshold

     Davidson diagonalization with overlap
     ethr =  5.48E-08,  avg # of iterations =  1.2

[...]

     bfgs converged in  14 scf cycles and  13 bfgs steps
     (criteria: energy <  1.0E-04 Ry, force <  1.0E-03Ry/Bohr, cell <  5.0E-01kbar)

     End of BFGS Geometry Optimization

     Final enthalpy =    -303.3196790234 Ry
Begin final coordinates
     new unit-cell volume =    433.36371 a.u.^3 (    64.21788 Ang^3 )
     density =      6.02954 g/cm^3

CELL_PARAMETERS (alat=  7.40000000)
   1.045487627   0.000000000   0.000000000
   0.000000000   1.011391364   0.000000000
   0.000000000   0.000000000   1.011391364

ATOMIC_POSITIONS (crystal)
Ba      -0.023304873   0.000000000   0.000000000
Ti       0.468154265   0.500000000   0.500000000
O        0.021854084   0.500000000   0.500000000
O        0.511648261   0.000000000   0.500000000
O        0.511648261   0.500000000   0.000000000
End final coordinates

     A final scf calculation at the relaxed structure.
     The G-vectors are recalculated for the final unit cell
     Results may differ from those at the preceding step.

     Title:
     cubic BaTiO3 at 7.40 lattice parameter. xc=PBE

     bravais-lattice index     =            1
     lattice parameter (alat)  =       7.4000  a.u.
     unit-cell volume          =     433.3637 (a.u.)^3
     number of atoms/cell      =            5
     number of atomic types    =            3
     number of electrons       =        40.00
     number of Kohn-Sham states=           24
     kinetic-energy cutoff     =     100.0000  Ry
     charge density cutoff     =     800.0000  Ry
     convergence threshold     =      1.0E-14
     mixing beta               =       0.6000
     number of iterations used =            8  plain     mixing
     Exchange-correlation      =  SLA  PW   PBE  PBE ( 1  4  3  4 0 0)

     celldm(1)=   7.400000  celldm(2)=   0.000000  celldm(3)=   0.000000
     celldm(4)=   0.000000  celldm(5)=   0.000000  celldm(6)=   0.000000

     crystal axes: (cart. coord. in units of alat)
               a(1) = (   1.045488   0.000000   0.000000 )
               a(2) = (   0.000000   1.011391   0.000000 )
               a(3) = (   0.000000   0.000000   1.011391 )

     reciprocal axes: (cart. coord. in units 2 pi/alat)
               b(1) = (  0.956491  0.000000  0.000000 )
               b(2) = (  0.000000  0.988737  0.000000 )
               b(3) = (  0.000000  0.000000  0.988737 )

     PseudoPot. # 1 for O  read from file:
     ../../PSP_DIR/O.pbe-rrkjus.UPF
     MD5 check sum: 390ba29e75625707450f3bd3f0eb6be9
     Pseudo is Ultrasoft, Zval =  6.0
     Generated by new atomic code, or converted to UPF format
     Using radial grid of 1269 points,  4 beta functions with:
                l(1) =   0
                l(2) =   0
                l(3) =   1
                l(4) =   1
     Q(r) pseudized with 0 coefficients

     PseudoPot. # 2 for Ti read from file:
     ../../PSP_DIR/Ti.pbe-sp-van_ak.UPF
     MD5 check sum: 8e4df49b7f0d34bbd5052bf3f5ea0213
     Pseudo is Ultrasoft, Zval = 12.0
     Generated by new atomic code, or converted to UPF format
     Using radial grid of  851 points,  6 beta functions with:
                l(1) =   0
                l(2) =   0
                l(3) =   1
                l(4) =   1
                l(5) =   2
                l(6) =   2
     Q(r) pseudized with  8 coefficients,  rinner =    1.000   1.000   1.000
                                                       1.000   1.000

     PseudoPot. # 3 for Ba read from file:
     ../../PSP_DIR/Ba.pbe-nsp-van.UPF
     MD5 check sum: a011de417d3466d8e94df216395bc359
     Pseudo is Ultrasoft + core correction, Zval = 10.0
     Generated by new atomic code, or converted to UPF format
     Using radial grid of  907 points,  6 beta functions with:
                l(1) =   0
                l(2) =   0
                l(3) =   1
                l(4) =   1
                l(5) =   2
                l(6) =   2
     Q(r) pseudized with  6 coefficients,  rinner =    1.200   1.200   1.200
                                                       1.200   1.200

     atomic species   valence    mass     pseudopotential
        O              6.00    15.99000     O ( 1.00)
        Ti            12.00    47.88000     Ti( 1.00)
        Ba            10.00   137.33000     Ba( 1.00)

      8 Sym. Ops. (no inversion) found

   Cartesian axes

     site n.     atom                  positions (alat units)
         1           Ba  tau(   1) = (  -0.0243650   0.0000000   0.0000000  )
         2           Ti  tau(   2) = (   0.4894495   0.5056957   0.5056957  )
         3           O   tau(   3) = (   0.0228482   0.5056957   0.5056957  )
         4           O   tau(   4) = (   0.5349219   0.0000000   0.5056957  )
         5           O   tau(   5) = (   0.5349219   0.5056957   0.0000000  )

     number of k points=    18
                       cart. coord. in units 2pi/alat
        k(    1) = (   0.0797076   0.0823947   0.0823947), wk =   0.0740741
        k(    2) = (   0.0797076   0.0823947   0.2471842), wk =   0.1481481
        k(    3) = (   0.0797076   0.0823947   0.4119737), wk =   0.1481481
        k(    4) = (   0.0797076   0.2471842   0.2471842), wk =   0.0740741
        k(    5) = (   0.0797076   0.2471842   0.4119737), wk =   0.1481481
        k(    6) = (   0.0797076   0.4119737   0.4119737), wk =   0.0740741
        k(    7) = (   0.2391229   0.2471842   0.2471842), wk =   0.0740741
        k(    8) = (   0.2391229   0.2471842   0.4119737), wk =   0.1481481
        k(    9) = (   0.2391229   0.4119737   0.4119737), wk =   0.0740741
        k(   10) = (   0.3985381   0.4119737   0.4119737), wk =   0.0740741
        k(   11) = (   0.2391229  -0.0823947   0.0823947), wk =   0.0740741
        k(   12) = (   0.3985381  -0.0823947   0.0823947), wk =   0.0740741
        k(   13) = (   0.2391229  -0.2471842   0.0823947), wk =   0.1481481
        k(   14) = (   0.3985381  -0.2471842   0.0823947), wk =   0.1481481
        k(   15) = (   0.2391229   0.4119737   0.0823947), wk =   0.1481481
        k(   16) = (   0.3985381  -0.4119737   0.0823947), wk =   0.1481481
        k(   17) = (   0.3985381  -0.2471842   0.2471842), wk =   0.0740741
        k(   18) = (   0.3985381  -0.4119737   0.2471842), wk =   0.1481481

     Initial potential from superposition of free atoms

     starting charge   38.98495, renormalised to   40.00000
     Starting wfc are   35 randomized atomic wfcs

     Writing output data file bto.save

     Self-consistent Calculation

[...]

          k = 0.3985-0.4120 0.2472     band energies (ev):

[...]

     one-electron contribution =     -72.92341601 Ry
     hartree contribution      =      60.34883231 Ry
     xc contribution           =     -84.18217685 Ry
     ewald contribution        =    -206.56255733 Ry
     scf correction            =      -0.00038177 Ry

[...]

     total energy              =    -303.31969968 Ry
     Harris-Foulkes estimate   =    -303.31969968 Ry
     estimated scf accuracy    <          2.6E-14 Ry

     iteration # 17     ecut=   100.00 Ry     beta=0.60
     Davidson diagonalization with overlap
     ethr =  1.00E-13,  avg # of iterations =  1.0

     End of self-consistent calculation

[...]

          k = 0.3985-0.4120 0.2472 (  7320 PWs)   bands (ev):

   -46.1283 -22.4904 -22.4150 -22.3893 -14.1303  -6.0601  -5.8682  -5.7121
     0.0572   0.1344   0.4109   6.1126   6.6165   7.0522   7.2572   7.8110
     7.9116   9.5063   9.7239   9.8862  14.0782  14.1676  14.3156  16.6486

     highest occupied, lowest unoccupied level (ev):    10.1889   12.4948

!    total energy              =    -303.31969968 Ry
     Harris-Foulkes estimate   =    -303.31969968 Ry
     estimated scf accuracy    <          4.5E-15 Ry

     The total energy is the sum of the following terms:

     one-electron contribution =     -72.92390673 Ry
     hartree contribution      =      60.34893884 Ry
     xc contribution           =     -84.18217447 Ry
     ewald contribution        =    -206.56255733 Ry

     convergence has been achieved in  17 iterations

     Forces acting on atoms (cartesian axes, Ry/au):

     atom    1 type  3   force =     0.00030561    0.00000000    0.00000000
     atom    2 type  2   force =    -0.00035970    0.00000000    0.00000000
     atom    3 type  1   force =     0.00004735    0.00000000    0.00000000
     atom    4 type  1   force =     0.00000337    0.00000000    0.00000000
     atom    5 type  1   force =     0.00000337    0.00000000    0.00000000

     Total force =     0.000474     Total SCF correction =     0.000000

     Computing stress (Cartesian axis) and pressure

          total   stress  (Ry/bohr**3)                   (kbar)     P=   -0.35
  -0.00000383   0.00000000   0.00000000         -0.56      0.00      0.00
   0.00000000  -0.00000164   0.00000000          0.00     -0.24      0.00
   0.00000000   0.00000000  -0.00000164          0.00      0.00     -0.24

     Writing output data file bto.save

     General routines

     Parallel routines

   This run was terminated on:  14: 6:19   6Jan2018

   JOB DONE.