     Program PHONON v.6.1 (svn rev. 13369) starts on 14Jan2018 at 18:23: 4

     Reading data from directory:
     ./bto.save

   Info: using nr1, nr2, nr3 values from input

[...]

     IMPORTANT: XC functional enforced from input :
     Exchange-correlation      =  SLA  PW   PBE  PBE ( 1  4  3  4 0 0)
     Any further DFT definition will be discarded
     Please, verify this is what you really want

               file O.pbe-rrkjus.UPF: wavefunction(s)  2S renormalized

     Dynamical matrices for ( 4, 4, 4)  uniform grid of q-points
     (  10q-points):
       N         xq(1)         xq(2)         xq(3)
       1   0.000000000   0.000000000   0.000000000
       2   0.000000000   0.000000000   0.250000000
       3   0.000000000   0.000000000  -0.500000000
       4   0.000000000   0.250000000   0.250000000
       5   0.000000000   0.250000000  -0.500000000
       6   0.000000000  -0.500000000  -0.500000000
       7   0.250000000   0.250000000   0.250000000
       8   0.250000000   0.250000000  -0.500000000
       9   0.250000000  -0.500000000  -0.500000000
      10  -0.500000000  -0.500000000  -0.500000000

     Calculation of q =    0.0000000   0.0000000   0.0000000

     bravais-lattice index     =            1
     lattice parameter (alat)  =       7.5234  a.u.
     unit-cell volume          =     425.8418 (a.u.)^3
     number of atoms/cell      =            5
     number of atomic types    =            3
     kinetic-energy cut-off    =     100.0000  Ry
     charge density cut-off    =     800.0000  Ry
     convergence threshold     =      1.0E-12
     beta                      =       0.7000
     number of iterations used =            4
     Exchange-correlation      =  SLA  PW   PBE  PBE ( 1  4  3  4 0 0)

     celldm(1)=    7.52343  celldm(2)=    0.00000  celldm(3)=    0.00000
     celldm(4)=    0.00000  celldm(5)=    0.00000  celldm(6)=    0.00000

     crystal axes: (cart. coord. in units of alat)
               a(1) = (  1.0000  0.0000  0.0000 )
               a(2) = (  0.0000  1.0000  0.0000 )
               a(3) = (  0.0000  0.0000  1.0000 )

     reciprocal axes: (cart. coord. in units 2 pi/alat)
               b(1) = (  1.0000  0.0000  0.0000 )
               b(2) = (  0.0000  1.0000  0.0000 )
               b(3) = (  0.0000  0.0000  1.0000 )

     Atoms inside the unit cell:

     Cartesian axes

     site n.  atom      mass           positions (alat units)
        1     Ba 137.3300   tau(    1) = (    0.00000    0.00000    0.00000  )
        2     Ti  47.8800   tau(    2) = (    0.50000    0.50000    0.50000  )
        3     O   15.9900   tau(    3) = (    0.00000    0.50000    0.50000  )
        4     O   15.9900   tau(    4) = (    0.50000    0.00000    0.50000  )
        5     O   15.9900   tau(    5) = (    0.50000    0.50000    0.00000  )

     Computing dynamical matrix for
                    q = (   0.0000000   0.0000000   0.0000000 )

     49 Sym.Ops. (with q -> -q+G )

     G cutoff = 1146.9974  (   5814 G-vectors)     FFT grid: ( 72, 72, 72)
     G cutoff =  573.4987  (   2058 G-vectors)  smooth grid: ( 48, 48, 48)
     number of k points=    10

     PseudoPot. # 1 for O  read from file:
     ../../PSP_DIR/O.pbe-rrkjus.UPF
     MD5 check sum: 390ba29e75625707450f3bd3f0eb6be9
     Pseudo is Ultrasoft, Zval =  6.0
     Generated by new atomic code, or converted to UPF format
     Using radial grid of 1269 points,  4 beta functions with:
                l(1) =   0
                l(2) =   0
                l(3) =   1
                l(4) =   1
     Q(r) pseudized with 0 coefficients

     PseudoPot. # 2 for Ti read from file:
     ../../PSP_DIR/Ti.pbe-sp-van_ak.UPF
     MD5 check sum: 8e4df49b7f0d34bbd5052bf3f5ea0213
     Pseudo is Ultrasoft, Zval = 12.0
     Generated by new atomic code, or converted to UPF format
     Using radial grid of  851 points,  6 beta functions with:
                l(1) =   0
                l(2) =   0
                l(3) =   1
                l(4) =   1
                l(5) =   2
                l(6) =   2
     Q(r) pseudized with  8 coefficients,  rinner =    1.000   1.000   1.000
                                                       1.000   1.000

     PseudoPot. # 3 for Ba read from file:
     ../../PSP_DIR/Ba.pbe-nsp-van.UPF
     MD5 check sum: a011de417d3466d8e94df216395bc359
     Pseudo is Ultrasoft + core correction, Zval = 10.0
     Generated by new atomic code, or converted to UPF format
     Using radial grid of  907 points,  6 beta functions with:
                l(1) =   0
                l(2) =   0
                l(3) =   1
                l(4) =   1
                l(5) =   2
                l(6) =   2
     Q(r) pseudized with  6 coefficients,  rinner =    1.200   1.200   1.200
                                                       1.200   1.200

     Mode symmetry, O_h (m-3m)  point group:

     Electric field:
     Dielectric constant
     Born effective charges in two ways

     Atomic displacements:
     There are   5 irreducible representations

     Representation     1      3 modes -T_1u G_15  G_4-  To be done

[...]

     Alpha used in Ewald sum =   2.8000

     Electric Fields Calculation

      thresh= 1.000E-02 alpha_mix =  0.700 |ddv_scf|^2 =  7.112E-09

[...]

     End of electric fields calculation

          Dielectric constant in cartesian axis

          (       6.516983780      -0.000000000       0.000000000 )
          (       0.000000000       6.516983780       0.000000000 )
          (       0.000000000      -0.000000000       6.516983780 )

          Effective charges (d Force / dE) in cartesian axis

           atom      1   Ba
      Ex  (        2.52954        0.00000        0.00000 )
      Ey  (       -0.00000        2.52954        0.00000 )
      Ez  (       -0.00000        0.00000        2.52954 )
           atom      2   Ti
      Ex  (        7.32340       -0.00000        0.00000 )
      Ey  (        0.00000        7.32340       -0.00000 )
      Ez  (        0.00000        0.00000        7.32340 )
           atom      3   O
      Ex  (       -5.75594        0.00000        0.00000 )
      Ey  (       -0.00000       -2.14551       -0.00000 )
      Ez  (       -0.00000       -0.00000       -2.14551 )
           atom      4   O
      Ex  (       -2.14551       -0.00000        0.00000 )
      Ey  (        0.00000       -5.75594        0.00000 )
      Ez  (        0.00000        0.00000       -2.14551 )
           atom      5   O
      Ex  (       -2.14551       -0.00000        0.00000 )
      Ey  (        0.00000       -2.14551        0.00000 )
      Ez  (        0.00000        0.00000       -5.75594 )

     Representation #  1 modes #   1  2  3

     Self-consistent Calculation

[...]

     End of self-consistent calculation

     Convergence has been achieved

[...]

     Number of q in the star =    1
     List of q in the star:
          1   0.000000000   0.000000000   0.000000000

          Dielectric constant in cartesian axis

          (       6.516983780      -0.000000000       0.000000000 )
          (       0.000000000       6.516983780       0.000000000 )
          (       0.000000000      -0.000000000       6.516983780 )

          Effective charges (d Force / dE) in cartesian axis

[...]

          Effective charges (d P / du) in cartesian axis

           atom      1   Ba
      Px  (        2.77444        0.00000       -0.00000 )
      Py  (       -0.00000        2.77444       -0.00000 )
      Pz  (       -0.00000       -0.00000        2.77444 )
           atom      2   Ti
      Px  (        7.29061        0.00000       -0.00000 )
      Py  (        0.00000        7.29061        0.00000 )
      Pz  (       -0.00000        0.00000        7.29061 )
           atom      3   O
      Px  (       -5.75211       -0.00000        0.00000 )
      Py  (        0.00000       -2.15160        0.00000 )
      Pz  (        0.00000       -0.00000       -2.15160 )
           atom      4   O
      Px  (       -2.15160       -0.00000        0.00000 )
      Py  (       -0.00000       -5.75211       -0.00000 )
      Pz  (        0.00000       -0.00000       -2.15160 )
           atom      5   O
      Px  (       -2.15160        0.00000        0.00000 )
      Py  (       -0.00000       -2.15160       -0.00000 )
      Pz  (        0.00000       -0.00000       -5.75211 )

     Diagonalizing the dynamical matrix

     q = (    0.000000000   0.000000000   0.000000000 )

     freq (    1) =      -4.492882 [THz] =    -149.866417 [cm-1]
     freq (    2) =      -4.492882 [THz] =    -149.866417 [cm-1]
     freq (    3) =      -4.492882 [THz] =    -149.866417 [cm-1]
     freq (    4) =       0.544587 [THz] =      18.165478 [cm-1]
     freq (    5) =       0.544587 [THz] =      18.165478 [cm-1]
     freq (    6) =       0.544587 [THz] =      18.165478 [cm-1]
     freq (    7) =       4.183975 [THz] =     139.562389 [cm-1]
     freq (    8) =       4.183975 [THz] =     139.562389 [cm-1]
     freq (    9) =       4.183975 [THz] =     139.562389 [cm-1]
     freq (   10) =       8.242412 [THz] =     274.937254 [cm-1]
     freq (   11) =       8.242412 [THz] =     274.937254 [cm-1]
     freq (   12) =       8.242412 [THz] =     274.937254 [cm-1]
     freq (   13) =      14.353970 [THz] =     478.796912 [cm-1]
     freq (   14) =      14.353970 [THz] =     478.796912 [cm-1]
     freq (   15) =      14.353970 [THz] =     478.796912 [cm-1]

[...]

     freq (  1 -  3) =       -149.9  [cm-1]   --> T_1u G_15  G_4- I
     freq (  4 -  6) =         18.2  [cm-1]   --> T_1u G_15  G_4- I
     freq (  7 -  9) =        139.6  [cm-1]   --> T_1u G_15  G_4- I
     freq ( 10 - 12) =        274.9  [cm-1]   --> T_2u G_25  G_5-
     freq ( 13 - 15) =        478.8  [cm-1]   --> T_1u G_15  G_4- I

[...]

     bravais-lattice index     =            1
     lattice parameter (alat)  =       7.5234  a.u.
     unit-cell volume          =     425.8418 (a.u.)^3
     number of atoms/cell      =            5
     number of atomic types    =            3
     number of electrons       =        40.00
     number of Kohn-Sham states=           24
     kinetic-energy cutoff     =     100.0000  Ry
     charge density cutoff     =     800.0000  Ry
     Exchange-correlation      =  SLA  PW   PBE  PBE ( 1  4  3  4 0 0)

[...]

     atomic species   valence    mass     pseudopotential
        O              6.00    15.99000     O ( 1.00)
        Ti            12.00    47.88000     Ti( 1.00)
        Ba            10.00   137.33000     Ba( 1.00)

     48 Sym. Ops., with inversion, found

[...]

     site n.     atom                  positions (alat units)
         1           Ba  tau(   1) = (   0.0000000   0.0000000   0.0000000  )
         2           Ti  tau(   2) = (   0.5000000   0.5000000   0.5000000  )
         3           O   tau(   3) = (   0.0000000   0.5000000   0.5000000  )
         4           O   tau(   4) = (   0.5000000   0.0000000   0.5000000  )
         5           O   tau(   5) = (   0.5000000   0.5000000   0.0000000  )

     number of k points=    72
                       cart. coord. in units 2pi/alat
        k(    1) = (   0.0833333   0.0833333   0.0833333), wk =   0.0370370
[...]
     freq (  8 -  8) =        213.9  [cm-1]   --> A_1  G_1 D_1
     freq (  9 -  9) =        294.4  [cm-1]   --> B_1  G_3 D_2
     freq ( 10 - 11) =        308.6  [cm-1]   --> E    G_5 D_5
     freq ( 12 - 13) =        462.0  [cm-1]   --> E    G_5 D_5
     freq ( 14 - 14) =        484.8  [cm-1]   --> A_1  G_1 D_1
     freq ( 15 - 15) =        671.3  [cm-1]   --> A_1  G_1 D_1

[...]

     Mode symmetry, D_4h(4/mmm) point group:

[...]

     Representation     1      1 modes -A_1g X_1  M_1  To be done

[...]

     Representation     4      2 modes -E_g  X_5  M_5  To be done

[...]

     Representation     7      1 modes -A_2u X_4' M_4'  To be done

[...]

     Representation     9      2 modes -E_u  X_5' M_5'  To be done

[...]

     freq (  1 -  2) =       -132.7  [cm-1]   --> E_g  X_5  M_5
     freq (  3 -  4) =         81.5  [cm-1]   --> E_u  X_5' M_5'
     freq (  5 -  5) =        137.8  [cm-1]   --> A_2u X_4' M_4'
     freq (  6 -  7) =        196.2  [cm-1]   --> E_g  X_5  M_5
     freq (  8 -  8) =        273.2  [cm-1]   --> A_1g X_1  M_1
     freq (  9 -  9) =        311.7  [cm-1]   --> B_1g X_2  M_2
     freq ( 10 - 11) =        324.5  [cm-1]   --> E_u  X_5' M_5'
     freq ( 12 - 13) =        440.8  [cm-1]   --> E_g  X_5  M_5
     freq ( 14 - 14) =        521.2  [cm-1]   --> A_1g X_1  M_1
     freq ( 15 - 15) =        663.6  [cm-1]   --> A_2u X_4' M_4'

[...]

     number of k points=   126

     Number of k-points >= 100: set verbosity='high' to print them.

[...]

     Number of k-points >= 100: set verbosity='high' to print the bands.

[...]

     Mode symmetry, C_2v (mm2)  point group:

[...]

     freq (  1 -  1) =       -108.5  [cm-1]   --> B_1  D_3  S_3
     freq (  2 -  2) =         64.1  [cm-1]   --> B_2  D_4  S_4
     freq (  3 -  3) =         86.7  [cm-1]   --> B_1  D_3  S_3
     freq (  4 -  4) =        106.8  [cm-1]   --> A_1  D_1  S_1
     freq (  5 -  5) =        193.2  [cm-1]   --> B_2  D_4  S_4
     freq (  6 -  6) =        218.9  [cm-1]   --> B_1  D_3  S_3
     freq (  7 -  7) =        228.7  [cm-1]   --> A_1  D_1  S_1
     freq (  8 -  8) =        245.0  [cm-1]   --> B_2  D_4  S_4
     freq (  9 -  9) =        301.8  [cm-1]   --> B_2  D_4  S_4
     freq ( 10 - 10) =        307.3  [cm-1]   --> A_2  D_2  S_2
     freq ( 11 - 11) =        351.7  [cm-1]   --> A_1  D_1  S_1
     freq ( 12 - 12) =        445.5  [cm-1]   --> B_1  D_3  S_3
     freq ( 13 - 13) =        463.5  [cm-1]   --> B_2  D_4  S_4
     freq ( 14 - 14) =        486.4  [cm-1]   --> A_1  D_1  S_1
     freq ( 15 - 15) =        696.7  [cm-1]   --> A_1  D_1  S_1

[...]

     Representation     4      1 modes -B_2g X_3  M_3  To be done

     Representation     5      2 modes -E_g  X_5  M_5  To be done

[...]

     Representation     8      1 modes -B_1u X_2' M_2'  To be done

[...]

     Representation    11      2 modes -E_u  X_5' M_5'  To be done

[...]

     Mode symmetry, D_4h(4/mmm) point group:

     freq (  1 -  1) =       -120.1  [cm-1]   --> B_1u X_2' M_2'
     freq (  2 -  2) =         89.5  [cm-1]   --> A_2u X_4' M_4'
     freq (  3 -  4) =         92.1  [cm-1]   --> E_u  X_5' M_5'
     freq (  5 -  5) =        190.9  [cm-1]   --> B_1g X_2  M_2
     freq (  6 -  7) =        256.6  [cm-1]   --> E_u  X_5' M_5'
     freq (  8 -  9) =        358.3  [cm-1]   --> E_g  X_5  M_5
     freq ( 10 - 10) =        364.4  [cm-1]   --> B_1u X_2' M_2'
     freq ( 11 - 11) =        410.1  [cm-1]   --> A_2g X_4  M_4
     freq ( 12 - 13) =        441.8  [cm-1]   --> E_u  X_5' M_5'
     freq ( 14 - 14) =        469.5  [cm-1]   --> A_1g X_1  M_1
     freq ( 15 - 15) =        715.1  [cm-1]   --> B_2g X_3  M_3

[...]

     Mode symmetry, C_3v (3m)   point group:

[...]

     Representation     1      1 modes -A_1  L_1  To be done

[...]

     Representation     5      1 modes -A_2  L_2  To be done

     Representation     6      2 modes -E    L_3  To be done

[...]

     Representation    10      2 modes -E    L_3  To be done

[...]

     Mode symmetry, C_3v (3m)   point group:

     freq (  1 -  2) =         85.0  [cm-1]   --> E    L_3
     freq (  3 -  3) =         92.3  [cm-1]   --> A_1  L_1
     freq (  4 -  5) =        201.6  [cm-1]   --> E    L_3
     freq (  6 -  6) =        233.8  [cm-1]   --> A_2  L_2
     freq (  7 -  8) =        237.4  [cm-1]   --> E    L_3
     freq (  9 -  9) =        281.3  [cm-1]   --> A_1  L_1
     freq ( 10 - 11) =        373.7  [cm-1]   --> E    L_3
     freq ( 12 - 13) =        449.9  [cm-1]   --> E    L_3
     freq ( 14 - 14) =        474.2  [cm-1]   --> A_1  L_1
     freq ( 15 - 15) =        712.9  [cm-1]   --> A_1  L_1

[...]

     number of k points=   126

     Number of k-points >= 100: set verbosity='high' to print them.

[...]

     Number of k-points >= 100: set verbosity='high' to print the bands.

[...]

     Mode symmetry, C_2v (mm2)  point group:

     freq (  1 -  1) =         89.5  [cm-1]   --> B_2  D_4  S_4
     freq (  2 -  2) =         91.1  [cm-1]   --> A_1  D_1  S_1
     freq (  3 -  3) =        103.3  [cm-1]   --> B_1  D_3  S_3
     freq (  4 -  4) =        209.8  [cm-1]   --> A_2  D_2  S_2
     freq (  5 -  5) =        214.1  [cm-1]   --> A_1  D_1  S_1
     freq (  6 -  6) =        220.2  [cm-1]   --> B_1  D_3  S_3
     freq (  7 -  7) =        232.8  [cm-1]   --> A_2  D_2  S_2
     freq (  8 -  8) =        279.8  [cm-1]   --> B_2  D_4  S_4
     freq (  9 -  9) =        353.4  [cm-1]   --> B_2  D_4  S_4
     freq ( 10 - 10) =        374.1  [cm-1]   --> A_1  D_1  S_1
     freq ( 11 - 11) =        396.4  [cm-1]   --> B_1  D_3  S_3
     freq ( 12 - 12) =        420.4  [cm-1]   --> A_2  D_2  S_2
     freq ( 13 - 13) =        431.8  [cm-1]   --> B_2  D_4  S_4
     freq ( 14 - 14) =        478.7  [cm-1]   --> A_1  D_1  S_1
     freq ( 15 - 15) =        720.4  [cm-1]   --> B_2  D_4  S_4

[...]

      8 Sym.Ops. (no q -> -q+G )

[...]

     Representation     3      1 modes -A_2  G_2 D_1'  To be done

     Representation     4      1 modes -B_1  G_3 D_2  To be done

[...]

     Representation     7      1 modes -B_2  G_4 D_2'  To be done

[...]

     Representation    11      2 modes -E    G_5 D_5  To be done

[...]

     Mode symmetry, C_4v (4mm)  point group:

     freq (  1 -  2) =        103.3  [cm-1]   --> E    G_5 D_5
     freq (  3 -  3) =        103.4  [cm-1]   --> A_1  G_1 D_1
     freq (  4 -  4) =        178.3  [cm-1]   --> B_1  G_3 D_2
     freq (  5 -  6) =        205.7  [cm-1]   --> E    G_5 D_5
     freq (  7 -  7) =        245.7  [cm-1]   --> B_2  G_4 D_2'
     freq (  8 -  9) =        365.9  [cm-1]   --> E    G_5 D_5
     freq ( 10 - 10) =        393.9  [cm-1]   --> B_2  G_4 D_2'
     freq ( 11 - 11) =        394.4  [cm-1]   --> A_2  G_2 D_1'
     freq ( 12 - 13) =        427.8  [cm-1]   --> E    G_5 D_5
     freq ( 14 - 14) =        441.1  [cm-1]   --> A_1  G_1 D_1
     freq ( 15 - 15) =        737.6  [cm-1]   --> B_2  G_4 D_2'

     Calculation of q =   -0.5000000  -0.5000000  -0.5000000

[...]

   Info: using nr1, nr2, nr3 values from input

     bravais-lattice index     =            1
     lattice parameter (alat)  =       7.5234  a.u.
     unit-cell volume          =     425.8418 (a.u.)^3
     number of atoms/cell      =            5
     number of atomic types    =            3
     number of electrons       =        40.00
     number of Kohn-Sham states=           24
     kinetic-energy cutoff     =     100.0000  Ry
     charge density cutoff     =     800.0000  Ry
     Exchange-correlation      =  SLA  PW   PBE  PBE ( 1  4  3  4 0 0)

[...]

     atomic species   valence    mass     pseudopotential
        O              6.00    15.99000     O ( 1.00)
        Ti            12.00    47.88000     Ti( 1.00)
        Ba            10.00   137.33000     Ba( 1.00)

     48 Sym. Ops., with inversion, found

[...]

     site n.     atom                  positions (alat units)
         1           Ba  tau(   1) = (   0.0000000   0.0000000   0.0000000  )
         2           Ti  tau(   2) = (   0.5000000   0.5000000   0.5000000  )
         3           O   tau(   3) = (   0.0000000   0.5000000   0.5000000  )
         4           O   tau(   4) = (   0.5000000   0.0000000   0.5000000  )
         5           O   tau(   5) = (   0.5000000   0.5000000   0.0000000  )

     number of k points=    20
                       cart. coord. in units 2pi/alat
        k(    1) = (   0.0833333   0.0833333   0.0833333), wk =   0.0740741
        k(    2) = (  -0.4166667  -0.4166667  -0.4166667), wk =   0.0000000
        k(    3) = (   0.0833333   0.0833333   0.2500000), wk =   0.2222222
        k(    4) = (  -0.4166667  -0.4166667  -0.2500000), wk =   0.0000000
        k(    5) = (   0.0833333   0.0833333   0.4166667), wk =   0.2222222
        k(    6) = (  -0.4166667  -0.4166667  -0.0833333), wk =   0.0000000
        k(    7) = (   0.0833333   0.2500000   0.2500000), wk =   0.2222222
        k(    8) = (  -0.4166667  -0.2500000  -0.2500000), wk =   0.0000000
        k(    9) = (   0.0833333   0.2500000   0.4166667), wk =   0.4444444
        k(   10) = (  -0.4166667  -0.2500000  -0.0833333), wk =   0.0000000
        k(   11) = (   0.0833333   0.4166667   0.4166667), wk =   0.2222222
        k(   12) = (  -0.4166667  -0.0833333  -0.0833333), wk =   0.0000000
        k(   13) = (   0.2500000   0.2500000   0.2500000), wk =   0.0740741
        k(   14) = (  -0.2500000  -0.2500000  -0.2500000), wk =   0.0000000
        k(   15) = (   0.2500000   0.2500000   0.4166667), wk =   0.2222222
        k(   16) = (  -0.2500000  -0.2500000  -0.0833333), wk =   0.0000000
        k(   17) = (   0.2500000   0.4166667   0.4166667), wk =   0.2222222
        k(   18) = (  -0.2500000  -0.0833333  -0.0833333), wk =   0.0000000
        k(   19) = (   0.4166667   0.4166667   0.4166667), wk =   0.0740741
        k(   20) = (  -0.0833333  -0.0833333  -0.0833333), wk =   0.0000000

     The potential is recalculated from file :
     ./_ph0/bto.save/charge-density.dat

     Starting wfc are   35 atomic wfcs

     Band Structure Calculation
     Davidson diagonalization with overlap

     ethr =  2.50E-11,  avg # of iterations = 18.6

     End of band structure calculation

[...]

          k = 0.4167 0.4167 0.4167 (  7196 PWs)   bands (ev):

[...]

          k =-0.0833-0.0833-0.0833 (  7174 PWs)   bands (ev):

   -46.0472 -22.2872 -22.2869 -22.2869 -14.0075  -6.3570  -5.6899  -5.6899
     0.7762   0.7762   0.9025   7.8898   8.0834   8.0834   8.9193   8.9193
     9.2846   9.8614  10.1657  10.1657  12.5403  12.5907  12.5907  14.8478

     highest occupied, lowest unoccupied level (ev):    10.3122   12.5403

     Writing output data file bto.save

     bravais-lattice index     =            1
     lattice parameter (alat)  =       7.5234  a.u.
     unit-cell volume          =     425.8418 (a.u.)^3
     number of atoms/cell      =            5
     number of atomic types    =            3
     kinetic-energy cut-off    =     100.0000  Ry
     charge density cut-off    =     800.0000  Ry
     convergence threshold     =      1.0E-12
     beta                      =       0.7000
     number of iterations used =            4
     Exchange-correlation      =  SLA  PW   PBE  PBE ( 1  4  3  4 0 0)

     celldm(1)=    7.52343  celldm(2)=    0.00000  celldm(3)=    0.00000
     celldm(4)=    0.00000  celldm(5)=    0.00000  celldm(6)=    0.00000

     crystal axes: (cart. coord. in units of alat)
               a(1) = (  1.0000  0.0000  0.0000 )
               a(2) = (  0.0000  1.0000  0.0000 )
               a(3) = (  0.0000  0.0000  1.0000 )

     reciprocal axes: (cart. coord. in units 2 pi/alat)
               b(1) = (  1.0000  0.0000  0.0000 )
               b(2) = (  0.0000  1.0000  0.0000 )
               b(3) = (  0.0000  0.0000  1.0000 )

     Atoms inside the unit cell:

     Cartesian axes

     site n.  atom      mass           positions (alat units)
        1     Ba 137.3300   tau(    1) = (    0.00000    0.00000    0.00000  )
        2     Ti  47.8800   tau(    2) = (    0.50000    0.50000    0.50000  )
        3     O   15.9900   tau(    3) = (    0.00000    0.50000    0.50000  )
        4     O   15.9900   tau(    4) = (    0.50000    0.00000    0.50000  )
        5     O   15.9900   tau(    5) = (    0.50000    0.50000    0.00000  )

     Computing dynamical matrix for
                    q = (  -0.5000000  -0.5000000  -0.5000000 )

     49 Sym.Ops. (with q -> -q+G )

     G cutoff = 1146.9974  (   5814 G-vectors)     FFT grid: ( 72, 72, 72)
     G cutoff =  573.4987  (   2058 G-vectors)  smooth grid: ( 48, 48, 48)
     number of k points=    20

     PseudoPot. # 1 for O  read from file:
     ../../PSP_DIR/O.pbe-rrkjus.UPF
     MD5 check sum: 390ba29e75625707450f3bd3f0eb6be9
     Pseudo is Ultrasoft, Zval =  6.0
     Generated by new atomic code, or converted to UPF format
     Using radial grid of 1269 points,  4 beta functions with:
                l(1) =   0
                l(2) =   0
                l(3) =   1
                l(4) =   1
     Q(r) pseudized with 0 coefficients

     PseudoPot. # 2 for Ti read from file:
     ../../PSP_DIR/Ti.pbe-sp-van_ak.UPF
     MD5 check sum: 8e4df49b7f0d34bbd5052bf3f5ea0213
     Pseudo is Ultrasoft, Zval = 12.0
     Generated by new atomic code, or converted to UPF format
     Using radial grid of  851 points,  6 beta functions with:
                l(1) =   0
                l(2) =   0
                l(3) =   1
                l(4) =   1
                l(5) =   2
                l(6) =   2
     Q(r) pseudized with  8 coefficients,  rinner =    1.000   1.000   1.000
                                                       1.000   1.000

     PseudoPot. # 3 for Ba read from file:
     ../../PSP_DIR/Ba.pbe-nsp-van.UPF
     MD5 check sum: a011de417d3466d8e94df216395bc359
     Pseudo is Ultrasoft + core correction, Zval = 10.0
     Generated by new atomic code, or converted to UPF format
     Using radial grid of  907 points,  6 beta functions with:
                l(1) =   0
                l(2) =   0
                l(3) =   1
                l(4) =   1
                l(5) =   2
                l(6) =   2
     Q(r) pseudized with  6 coefficients,  rinner =    1.200   1.200   1.200
                                                       1.200   1.200

[...]

     Atomic displacements:
     There are   6 irreducible representations

     Representation     1      3 modes -T_2g G_25' G_5+  To be done

     Representation     2      1 modes -A_2u G_2'  G_2-  To be done

     Representation     3      2 modes -E_u  G_12' G_3-  To be done

[...]

     Representation     6      3 modes -T_2u G_25  G_5-  To be done

     Alpha used in Ewald sum =   2.8000

[...]

     Representation #  2 mode #   4

[...]

     Representation #  6 modes #  13 14 15

     Self-consistent Calculation

[...]

      thresh= 2.005E-07 alpha_mix =  0.700 |ddv_scf|^2 =  3.244E-15

     End of self-consistent calculation

     Convergence has been achieved

     Number of q in the star =    1
     List of q in the star:
          1  -0.500000000  -0.500000000  -0.500000000

     Diagonalizing the dynamical matrix

     q = (   -0.500000000  -0.500000000  -0.500000000 )

     freq (    1) =       3.426330 [THz] =     114.290052 [cm-1]
     freq (    2) =       3.426330 [THz] =     114.290052 [cm-1]
     freq (    3) =       3.426330 [THz] =     114.290052 [cm-1]
     freq (    4) =       4.910540 [THz] =     163.797986 [cm-1]
     freq (    5) =       4.910540 [THz] =     163.797986 [cm-1]
     freq (    6) =       4.910540 [THz] =     163.797986 [cm-1]
     freq (    7) =      10.828949 [THz] =     361.214871 [cm-1]
     freq (    8) =      10.828949 [THz] =     361.214871 [cm-1]
     freq (    9) =      10.828949 [THz] =     361.214871 [cm-1]
     freq (   10) =      11.307489 [THz] =     377.177231 [cm-1]
     freq (   11) =      11.307489 [THz] =     377.177231 [cm-1]
     freq (   12) =      12.520334 [THz] =     417.633387 [cm-1]
     freq (   13) =      12.520334 [THz] =     417.633387 [cm-1]
     freq (   14) =      12.520334 [THz] =     417.633387 [cm-1]
     freq (   15) =      22.495193 [THz] =     750.358867 [cm-1]

     Mode symmetry, O_h (m-3m)  point group:

     freq (  1 -  3) =        114.3  [cm-1]   --> T_1u G_15  G_4-
     freq (  4 -  6) =        163.8  [cm-1]   --> T_2u G_25  G_5-
     freq (  7 -  9) =        361.2  [cm-1]   --> T_2g G_25' G_5+
     freq ( 10 - 11) =        377.2  [cm-1]   --> E_u  G_12' G_3-
     freq ( 12 - 14) =        417.6  [cm-1]   --> T_1u G_15  G_4-
     freq ( 15 - 15) =        750.4  [cm-1]   --> A_2u G_2'  G_2-

     General routines

     Parallel routines

     INITIALIZATION:

     DYNAMICAL MATRIX:

      General routines

   This run was terminated on:  19:23: 0  14Jan2018

   JOB DONE.